#generated using str2pos                
    1.000000000000000     
    13.0518835180818531   -0.0103547753912218    0.0214757112722157
    -0.0103490336676811   13.0574233123587433   -0.0073873475349769
     0.0214802206319346   -0.0073918195377779   13.0479451828535886
   Ta   W 
    90    38
Direct
  0.2504167761844714  0.2496280725625582  0.2524192215894445
  0.1218354469486298  0.1228877168893166  0.1236358784534001
  0.4967038039783124  0.2517230196056715  0.2489128697272628
  0.7512463522613541  0.2540175944620208  0.2507571190041366
  0.6264857046876094  0.1217549300450666  0.1298564529981316
  0.0019986945689556  0.2523114440259635  0.2539265033223855
  0.8762494171256562  0.1210612325928619  0.1261102489561318
  0.2505275453615261  0.4993121060010171  0.2552297428644772
  0.1266505212737961  0.3780135626037161  0.1214239085169498
  0.4993695552167051  0.4999621134048959  0.2490466560466531
  0.3711988208099264  0.3771003338368027  0.1215893996202395
  0.7493125687681285  0.4987770021645356  0.2486372733719272
 -0.0000360507361385  0.4966988876762095  0.2544159849249445
  0.8789548120543125  0.3762274216099102  0.1236194060889022
  0.2521626439279993  0.7496708698874470  0.2510765715337916
  0.1234526362209544  0.6257984492177215  0.1232409457414178
  0.5014082850561450  0.7469128910610661  0.2524439475873767
  0.3722092347657764  0.6235346425501943  0.1224106835413939
  0.7459601527554786  0.7482063466951036  0.2511930578797781
  0.8801277579567284  0.6264507045615475  0.1248310640254148
  0.2508506865622643  0.0057174547812254  0.2504051582977762
  0.1211042217379418  0.8754649132276646  0.1256654728229926
  0.3780496283737598  0.8769043336145086  0.1286312288489505
  0.6247560154940420  0.8794401607008773  0.1278230015319091
  0.8773064680146191  0.8758808822419134  0.1267971652552371
  0.2474058874294610  0.2520322564038567  0.4963190131901581
  0.7520445349837515  0.2488344439920869  0.5026128794744829
  0.6244742800468448  0.1257103342938576  0.3740805387428180
  0.0008512967887484  0.2537852646595174  0.4988886929292750
  0.8745037415044040  0.1198969845724919  0.3742581793077346
  0.2480372726313519  0.4977926452882356  0.4976354631861811
  0.6227056927956701  0.3754108030043430  0.3814335980346631
 -0.0001924920256443  0.4942458756739682  0.5006705557237672
  0.2544675431201632  0.7511184591171108  0.5000433847587374
  0.1205243129655869  0.6303241338131027  0.3751735871662693
  0.4997977766418902  0.7536662223897292  0.5009391660164232
  0.7448702746985923  0.7541180245237027  0.4996043206255859
  0.6254018693479813  0.6201948521760379  0.3810385966253692
  0.8748304168799158  0.6276907306051088  0.3772293676438259
  0.2531921714752707  0.0035026621100867  0.4976478098026913
  0.1202540549522252  0.8753582098162924  0.3741845439500371
  0.5010674991514378 -0.0007893026311700  0.5023013628799157
  0.3762335168119376  0.8784241402070407  0.3716055569493549
  0.7441155850357947 -0.0019879771228068  0.5030879866233798
  0.8777345630079652  0.8763687430408956  0.3738683166799572
  0.2478548876086727  0.2507350962058271  0.7497619451091870
  0.1230440114064039  0.1213663505072682  0.6251546746095796
  0.3766728043954515  0.1312467269586393  0.6238705937082499
  0.7496952742014104  0.2497113473223002  0.7507472769547262
 -0.0005303177309357  0.2547901042398792  0.7488785444414967
  0.8780391684449134  0.1208774314513614  0.6248220852169248
  0.2446821807316609  0.4967286093175330  0.7470574127284287
  0.3805836732354987  0.3742277377444131  0.6250297959802028
  0.7533314110164545  0.4939222147716944  0.7524358014803864
  0.6207969592828657  0.3756457993724375  0.6236511831138847
 -0.0007404419695487  0.4951982759281539  0.7484565539195743
  0.2528230649521329  0.7537405929188457  0.7491594465102152
  0.1230052764472483  0.6283667187601799  0.6227088226626992
  0.4982878870877136  0.7546749106416926  0.7482584676722343
  0.3782330492690147  0.6201560101092066  0.6257694373561860
  0.6246841051581893  0.6203836250521686  0.6261301660132872
  0.0006558496263683  0.7473369932357172  0.7502119933728801
  0.8720686635654641  0.6266853771128958  0.6238813955791265
  0.2560975721489366 -0.0007344791919536  0.7506221006926385
  0.1208951726715550  0.8773956031697419  0.6224450072480012
  0.5004974881573450  0.0001745289955421  0.7496129831133185
  0.7444218039204172  0.0018183183212542  0.7486460723181477
  0.8770530661084439  0.8744654965403527  0.6251380292857835
  0.2517291074738059  0.2469037284221774 -0.0026357286971259
  0.1216956520580327  0.1208038731908682  0.8737821975277755
  0.5020284435367979  0.2485350880061079 -0.0006766381361691
  0.7487897708705027  0.2514423301118677 -0.0025311634207644
  0.0000232816269584  0.2519914980750424 -0.0036223200823136
  0.8782230371453230  0.1205644867938857  0.8741525228324087
  0.5062345716889887  0.4980109537025518  0.0023128928414040
  0.3762604605713832  0.3771115114880801  0.8724998721397064
  0.7479610774739681  0.4970297024001455  0.0004892407157587
  0.2536333321194197  0.7540692609641598 -0.0019520509637131
  0.1240697486396983  0.6248323306035642  0.8785685744419637
  0.5009148659441702  0.7498563067600086  0.0004675487722882
  0.3753688882938769  0.6195672002482708  0.8736037700984514
  0.7476931412481033  0.7476123110653140  0.0037649756671306
  0.6255695973460668  0.6247294798403862  0.8701449848023034
  0.8763944448421639  0.6264259007555784  0.8766648958938392
  0.2558345690113646  0.0014487567416555 -0.0011823138160945
  0.1205240905397065  0.8762676673631334  0.8767403491545526
  0.4985229366911413  0.0033324811374426 -0.0036485532074521
  0.7474580646287236  0.0008001217553599 -0.0021020027141071
  0.6282696922369593  0.8717895622749542  0.8754261028930300
  0.8766354312225456  0.8737793944522633  0.8754134434800603
  0.3763719042291713  0.1259507115061250  0.1256503625687707
  0.6248656215554633  0.3729302473470174  0.1260577486840526
  0.6252156028562891  0.6250114419482806  0.1260642691133191
 -0.0007535405293139  0.7496624177262625  0.2500175150305137
  0.4983401205418999  0.0027289188551523  0.2519138170729321
  0.7488783750316648 -0.0015110343681809  0.2524190503234305
  0.0015692215076231  0.0022978082101300  0.2507967387556966
  0.1226131376098683  0.1227697668196518  0.3748037641210681
  0.4986001387762427  0.2483642470684204  0.4989169222285387
  0.3777798029272523  0.1266265327254810  0.3758033510305447
  0.1254208915155229  0.3754415645056238  0.3738914263525832
  0.4971121290922353  0.4999396312290106  0.4979930684332871
  0.3775604062410250  0.3748868949557684  0.3768795815005832
  0.7522022470925406  0.4975341391552079  0.5015339407746352
  0.8720449734512994  0.3756738348789423  0.3757753369646747
  0.3762108544199920  0.6245830997356161  0.3767156977532456
 -0.0012606235490704  0.7496876838213260  0.5006350946153595
  0.6249632853245821  0.8773033955140381  0.3733800596148520
  0.0006713265585160  0.0023957553837895  0.4982953250076673
  0.5025227715965174  0.2469920580092134  0.7521931859665655
  0.6226418180732595  0.1284685720058328  0.6247166661571159
  0.1256252642137159  0.3738501962560686  0.6245063544698886
  0.5017567762306253  0.4979183405050689  0.7512745704486212
  0.8718570541370625  0.3748051248404060  0.6243239283558975
  0.7486978771090111  0.7498753278650289  0.7488435238583926
  0.3751527261194137  0.8767114240603946  0.6232103825230347
  0.6261393077765925  0.8734932576527423  0.6267856937376916
 -0.0003579459208981 -0.0003345946648308  0.7493324118449840
  0.3763277425426669  0.1284656243869971  0.8720418433379491
  0.6250107405578171  0.1257619821888298  0.8743718379598916
  0.2495638724772356  0.4989374401853795 -0.0021252352707544
  0.1264423802554573  0.3762981835599352  0.8767398200033211
  0.6226783437556782  0.3742761051145135  0.8715382262410100
 -0.0009671148462103  0.4976628919114542 -0.0026929975805592
  0.8758617867479230  0.3750590150705201  0.8764354465462976
 -0.0000846785186912  0.7493214826879954 -0.0001576898113212
  0.3761803838199270  0.8751456860219279  0.8757999917833322
 -0.0000632933375913  0.0000428977335882  0.0004666973111463
 
  0.00000000E+00  0.00000000E+00  0.00000000E+00
  0.00000000E+00  0.00000000E+00  0.00000000E+00
  0.00000000E+00  0.00000000E+00  0.00000000E+00
  0.00000000E+00  0.00000000E+00  0.00000000E+00
  0.00000000E+00  0.00000000E+00  0.00000000E+00
  0.00000000E+00  0.00000000E+00  0.00000000E+00
  0.00000000E+00  0.00000000E+00  0.00000000E+00
  0.00000000E+00  0.00000000E+00  0.00000000E+00
  0.00000000E+00  0.00000000E+00  0.00000000E+00
  0.00000000E+00  0.00000000E+00  0.00000000E+00
  0.00000000E+00  0.00000000E+00  0.00000000E+00
  0.00000000E+00  0.00000000E+00  0.00000000E+00
  0.00000000E+00  0.00000000E+00  0.00000000E+00
  0.00000000E+00  0.00000000E+00  0.00000000E+00
  0.00000000E+00  0.00000000E+00  0.00000000E+00
  0.00000000E+00  0.00000000E+00  0.00000000E+00
  0.00000000E+00  0.00000000E+00  0.00000000E+00
  0.00000000E+00  0.00000000E+00  0.00000000E+00
  0.00000000E+00  0.00000000E+00  0.00000000E+00
  0.00000000E+00  0.00000000E+00  0.00000000E+00
  0.00000000E+00  0.00000000E+00  0.00000000E+00
  0.00000000E+00  0.00000000E+00  0.00000000E+00
  0.00000000E+00  0.00000000E+00  0.00000000E+00
  0.00000000E+00  0.00000000E+00  0.00000000E+00
  0.00000000E+00  0.00000000E+00  0.00000000E+00
  0.00000000E+00  0.00000000E+00  0.00000000E+00
  0.00000000E+00  0.00000000E+00  0.00000000E+00
  0.00000000E+00  0.00000000E+00  0.00000000E+00
  0.00000000E+00  0.00000000E+00  0.00000000E+00
  0.00000000E+00  0.00000000E+00  0.00000000E+00
  0.00000000E+00  0.00000000E+00  0.00000000E+00
  0.00000000E+00  0.00000000E+00  0.00000000E+00
  0.00000000E+00  0.00000000E+00  0.00000000E+00
  0.00000000E+00  0.00000000E+00  0.00000000E+00
  0.00000000E+00  0.00000000E+00  0.00000000E+00
  0.00000000E+00  0.00000000E+00  0.00000000E+00
  0.00000000E+00  0.00000000E+00  0.00000000E+00
  0.00000000E+00  0.00000000E+00  0.00000000E+00
  0.00000000E+00  0.00000000E+00  0.00000000E+00
  0.00000000E+00  0.00000000E+00  0.00000000E+00
  0.00000000E+00  0.00000000E+00  0.00000000E+00
  0.00000000E+00  0.00000000E+00  0.00000000E+00
  0.00000000E+00  0.00000000E+00  0.00000000E+00
  0.00000000E+00  0.00000000E+00  0.00000000E+00
  0.00000000E+00  0.00000000E+00  0.00000000E+00
  0.00000000E+00  0.00000000E+00  0.00000000E+00
  0.00000000E+00  0.00000000E+00  0.00000000E+00
  0.00000000E+00  0.00000000E+00  0.00000000E+00
  0.00000000E+00  0.00000000E+00  0.00000000E+00
  0.00000000E+00  0.00000000E+00  0.00000000E+00
  0.00000000E+00  0.00000000E+00  0.00000000E+00
  0.00000000E+00  0.00000000E+00  0.00000000E+00
  0.00000000E+00  0.00000000E+00  0.00000000E+00
  0.00000000E+00  0.00000000E+00  0.00000000E+00
  0.00000000E+00  0.00000000E+00  0.00000000E+00
  0.00000000E+00  0.00000000E+00  0.00000000E+00
  0.00000000E+00  0.00000000E+00  0.00000000E+00
  0.00000000E+00  0.00000000E+00  0.00000000E+00
  0.00000000E+00  0.00000000E+00  0.00000000E+00
  0.00000000E+00  0.00000000E+00  0.00000000E+00
  0.00000000E+00  0.00000000E+00  0.00000000E+00
  0.00000000E+00  0.00000000E+00  0.00000000E+00
  0.00000000E+00  0.00000000E+00  0.00000000E+00
  0.00000000E+00  0.00000000E+00  0.00000000E+00
  0.00000000E+00  0.00000000E+00  0.00000000E+00
  0.00000000E+00  0.00000000E+00  0.00000000E+00
  0.00000000E+00  0.00000000E+00  0.00000000E+00
  0.00000000E+00  0.00000000E+00  0.00000000E+00
  0.00000000E+00  0.00000000E+00  0.00000000E+00
  0.00000000E+00  0.00000000E+00  0.00000000E+00
  0.00000000E+00  0.00000000E+00  0.00000000E+00
  0.00000000E+00  0.00000000E+00  0.00000000E+00
  0.00000000E+00  0.00000000E+00  0.00000000E+00
  0.00000000E+00  0.00000000E+00  0.00000000E+00
  0.00000000E+00  0.00000000E+00  0.00000000E+00
  0.00000000E+00  0.00000000E+00  0.00000000E+00
  0.00000000E+00  0.00000000E+00  0.00000000E+00
  0.00000000E+00  0.00000000E+00  0.00000000E+00
  0.00000000E+00  0.00000000E+00  0.00000000E+00
  0.00000000E+00  0.00000000E+00  0.00000000E+00
  0.00000000E+00  0.00000000E+00  0.00000000E+00
  0.00000000E+00  0.00000000E+00  0.00000000E+00
  0.00000000E+00  0.00000000E+00  0.00000000E+00
  0.00000000E+00  0.00000000E+00  0.00000000E+00
  0.00000000E+00  0.00000000E+00  0.00000000E+00
  0.00000000E+00  0.00000000E+00  0.00000000E+00
  0.00000000E+00  0.00000000E+00  0.00000000E+00
  0.00000000E+00  0.00000000E+00  0.00000000E+00
  0.00000000E+00  0.00000000E+00  0.00000000E+00
  0.00000000E+00  0.00000000E+00  0.00000000E+00
  0.00000000E+00  0.00000000E+00  0.00000000E+00
  0.00000000E+00  0.00000000E+00  0.00000000E+00
  0.00000000E+00  0.00000000E+00  0.00000000E+00
  0.00000000E+00  0.00000000E+00  0.00000000E+00
  0.00000000E+00  0.00000000E+00  0.00000000E+00
  0.00000000E+00  0.00000000E+00  0.00000000E+00
  0.00000000E+00  0.00000000E+00  0.00000000E+00
  0.00000000E+00  0.00000000E+00  0.00000000E+00
  0.00000000E+00  0.00000000E+00  0.00000000E+00
  0.00000000E+00  0.00000000E+00  0.00000000E+00
  0.00000000E+00  0.00000000E+00  0.00000000E+00
  0.00000000E+00  0.00000000E+00  0.00000000E+00
  0.00000000E+00  0.00000000E+00  0.00000000E+00
  0.00000000E+00  0.00000000E+00  0.00000000E+00
  0.00000000E+00  0.00000000E+00  0.00000000E+00
  0.00000000E+00  0.00000000E+00  0.00000000E+00
  0.00000000E+00  0.00000000E+00  0.00000000E+00
  0.00000000E+00  0.00000000E+00  0.00000000E+00
  0.00000000E+00  0.00000000E+00  0.00000000E+00
  0.00000000E+00  0.00000000E+00  0.00000000E+00
  0.00000000E+00  0.00000000E+00  0.00000000E+00
  0.00000000E+00  0.00000000E+00  0.00000000E+00
  0.00000000E+00  0.00000000E+00  0.00000000E+00
  0.00000000E+00  0.00000000E+00  0.00000000E+00
  0.00000000E+00  0.00000000E+00  0.00000000E+00
  0.00000000E+00  0.00000000E+00  0.00000000E+00
  0.00000000E+00  0.00000000E+00  0.00000000E+00
  0.00000000E+00  0.00000000E+00  0.00000000E+00
  0.00000000E+00  0.00000000E+00  0.00000000E+00
  0.00000000E+00  0.00000000E+00  0.00000000E+00
  0.00000000E+00  0.00000000E+00  0.00000000E+00
  0.00000000E+00  0.00000000E+00  0.00000000E+00
  0.00000000E+00  0.00000000E+00  0.00000000E+00
  0.00000000E+00  0.00000000E+00  0.00000000E+00
  0.00000000E+00  0.00000000E+00  0.00000000E+00
  0.00000000E+00  0.00000000E+00  0.00000000E+00
  0.00000000E+00  0.00000000E+00  0.00000000E+00
  0.00000000E+00  0.00000000E+00  0.00000000E+00
