#generated using str2pos                
    1.000000000000000     
    12.8450769632850648    0.0041529669171031    0.0003810536019513
     0.0041505127592716   12.8547531054847077   -0.0008752175989901
     0.0003813696404009   -0.0008759785727113   12.8397427130949762
   Ta   W 
    45    83
Direct
  0.1237447414741386  0.1242000239686039  0.1261976019789547
  0.4997693737565487  0.2507160680582975  0.2502529426257114
  0.8752833893641484  0.1246866015742339  0.1245430454027142
  0.2502667921457020  0.5000816332577636  0.2520709950731905
  0.1233464806421959  0.3734413056761218  0.1256869553523151
  0.4996567822052198  0.4977425066641293  0.2500574564634713
  0.8749983149644448  0.3725268943509115  0.1268855096836766
  0.3749882647515674  0.6271797849964702  0.1228213934068613
  0.0000916133030160  0.7497999348560944  0.2499786734285859
  0.4998338523418531  0.0048777982008613  0.2502283159811483
  0.3744470396643732  0.8742196874856883  0.1243328454477032
  0.6249304956457484  0.8751427374107408  0.1252319757888886
  0.1247269676932902  0.1246283902140091  0.3752229398386699
  0.5001472344569979  0.2508089938416606  0.5000536143567206
  0.7477648060999090  0.2499039498198063  0.5018771805179678
  0.8761945648717563  0.1242829587904151  0.3742327863800579
  0.2491604402167086  0.4992035914190766  0.4993057670527150
  0.0009131538428125  0.5007879337079819  0.5014431794547221
  0.8749963521256755  0.3743814665063882  0.3734741435597275
  0.6260681936923241  0.6258776410505812  0.3760593562300061
  0.0001884817479969  0.7478853749635471  0.4975343830608879
  0.3743485278250113  0.8750101194714267  0.3758440713696135
  0.6254604240899625  0.8736254815203847  0.3758495640905691
  0.2507477514459617  0.2513396812273613  0.7507204628022762
  0.1242000326737660  0.1242650386062115  0.6237028344357474
  0.4991386376812167  0.2513517720351529  0.7490276257550452
  0.7502494542102820  0.5000063614186343  0.7499576821635109
 -0.0002858517451490  0.4992591424442975  0.7496525899946253
  0.3760723190403288  0.6261852337476490  0.6264880950288430
  0.7503325037414136  0.7479417731387582  0.7519248249559429
  0.1255391622011093  0.8763526454240834  0.6259737043325176
  0.3752779495293911  0.8750625171230679  0.6248439402999951
  0.6245870318416945  0.8757553442207496  0.6242727447272052
  0.8749779412414406  0.8765737713083041  0.6247101555201097
  0.2521002276281200  0.2499597191173922 -0.0021805896018663
  0.4989626467969996  0.2513317794435996  0.0007950538711874
  0.6274262900914940  0.1237216986181268  0.8748478913490622
  0.8748225530202395  0.1246594987240441  0.8750786382575049
  0.7492781452501676  0.5007497980331233 -0.0010424804575117
 -0.0004787445184116  0.5017603286465070 -0.0024358593095456
  0.3748678165291899  0.6255999735785575  0.8748470576047449
  0.7513250730462102  0.7486776650242174 -0.0009864126119809
 -0.0013588399484752  0.7489284628596499  0.0014357819910815
  0.1261188045663124  0.8754801209545005  0.8740593238477422
  0.3747406896596150  0.8747507642334722  0.8750125731045518
  0.2526088609883705  0.2507581206523326  0.2506469432700997
  0.3730797897530735  0.1236764328441056  0.1248283202890662
  0.7464337198772858  0.2495909116183697  0.2506041302650108
  0.6272098243387565  0.1244256504691004  0.1239031044457193
  0.0007444410676147  0.2498575188121178  0.2511007974501762
  0.3739101293349874  0.3765109527686576  0.1241567270583224
  0.7487221483175278  0.5004735356973085  0.2493419540620096
  0.6266629933907150  0.3751021571636186  0.1246855476389142
  0.0006031423709989  0.5026074670236822  0.2507533781609146
  0.2468168887398565  0.7491625736735196  0.2507138673799957
  0.1266572917058235  0.6248130685358682  0.1247699886713069
  0.5000206426489342  0.7486542741577434  0.2499873898722779
  0.7530218861087367  0.7490130152865133  0.2490161214457504
  0.6238247765104402  0.6257758678722495  0.1263162803693504
  0.8741179624363780  0.6236840101355196  0.1275849522937891
  0.2497670405504503 -0.0002207717471707  0.2498767222880016
  0.1259840100615874  0.8764082529903593  0.1245633378007250
  0.7500469347430238 -0.0004981819318732  0.2501824285214190
 -0.0002161596637444 -0.0043184954293443  0.2497381817340810
  0.8740980606326001  0.8769158449032778  0.1259379744629349
  0.2517424333142554  0.2518187742159113  0.5006898089410329
  0.3724431812436146  0.1246084345028629  0.3760499478265593
  0.6266176376863960  0.1237381310329702  0.3756009899785157
 -0.0004650867356065  0.2514371475478434  0.5021829494056145
  0.1238176569923453  0.3720869674942170  0.3745457678370619
  0.4996802024486861  0.4984012119878844  0.5004578156259770
  0.3739378872471829  0.3742428466825779  0.3763379833632422
  0.7501362273001103  0.4992280570078198  0.5016378865105529
  0.6264354837181699  0.3771790049575642  0.3756203955366759
  0.2483000239464951  0.7483640134244077  0.4984681439568953
  0.1255689103288259  0.6255220651715347  0.3743009612902325
  0.5001279367636901  0.7485894539233654  0.5004984388999589
  0.3765595425912261  0.6274069696376630  0.3760782930300325
  0.7520466788060267  0.7483835348539103  0.5005017719458252
  0.8723806740343036  0.6237513233981671  0.3742897397837413
  0.2507140148815140  0.0010949425036288  0.4990709202772590
  0.1264137747910599  0.8763808255319373  0.3748648813503830
  0.5000195310330524  0.0037029024694692  0.5002566908933076
  0.7499978034759637  0.0018634219548803  0.4999677330431162
 -0.0009726497721413 -0.0012839502184353  0.4990447731322994
  0.8738442813980419  0.8760715077054623  0.3751269384200231
  0.3740472365662206  0.1235765808991438  0.6242530642443883
  0.7501466302865516  0.2516117923989034  0.7483913606898364
  0.6254261468936521  0.1233272056419033  0.6263311958533488
  0.0003252614708805  0.2515150404762143  0.7495630852308034
  0.8757246125297953  0.1239923909239642  0.6260857379186606
  0.2488314849915255  0.4984549982250389  0.7494327491634970
  0.1248583792111553  0.3730926677125213  0.6251071017865820
  0.5016767930963252  0.4986835464442823  0.7500255313691186
  0.3751681326052853  0.3772127786101679  0.6250347965972280
  0.6248645627421322  0.3766632452677558  0.6255132563026234
  0.8746420557018131  0.3731053417732718  0.6246142297066117
  0.2486854053084557  0.7487130340402095  0.7497486035196159
  0.1271030284123352  0.6265018043226630  0.6263877425033706
  0.5027544365321596  0.7495207008895973  0.7507536235614087
  0.6231965034945165  0.6251068543807891  0.6232828489208589
 -0.0011621020558179  0.7475457680849951  0.7504855088311856
  0.8742598439199727  0.6255420709119572  0.6236796199792327
  0.2511988814979979  0.0030874620422992  0.7505711507647278
  0.5004681262064361  0.0020833187218601  0.7500290828258952
  0.7501292935515158 -0.0002152143385536  0.7499661836693556
 -0.0007121634028777  0.0012497168835889  0.7507198644541553
  0.1232576199933306  0.1233631040872649  0.8745671669460241
  0.3757938198764917  0.1224275839220718  0.8744785627528201
  0.7479620427699242  0.2512778572415692 -0.0002556243339793
  0.0010620707217325  0.2503677805586169 -0.0029168123469767
  0.2492148703795104  0.4989781028903962 -0.0005669241231931
  0.1253002456074111  0.3752192408739360  0.8747617082945021
  0.5015072571267201  0.4986819591053452 -0.0002762814562214
  0.3753449570417347  0.3787628442649355  0.8744242553578188
  0.6248809047140056  0.3749109899336587  0.8747544714232860
  0.8750417833748554  0.3709113045475869  0.8748198435773171
  0.2472339343093332  0.7496122402962707  0.0007620196515462
  0.1278746056353728  0.6261280809174475  0.8740071493946099
  0.5027500740874967  0.7494618411075396 -0.0010022643325661
  0.6213964467747064  0.6248300159922483  0.8747390657983585
  0.8758992756349880  0.6253276946002513  0.8740084220746759
  0.2498186869578504  0.0018681791809847  0.0001013703970366
  0.5000567098899242  0.0019652103064077 -0.0000891803368916
  0.7504036442994795 -0.0020926802367684  0.0002965392177188
  0.6235838661223705  0.8764378496828262  0.8750452649693050
  0.0001824415435539 -0.0023434069655773 -0.0000107176315291
  0.8763737832682289  0.8778293443661627  0.8741843136799936
 
  0.00000000E+00  0.00000000E+00  0.00000000E+00
  0.00000000E+00  0.00000000E+00  0.00000000E+00
  0.00000000E+00  0.00000000E+00  0.00000000E+00
  0.00000000E+00  0.00000000E+00  0.00000000E+00
  0.00000000E+00  0.00000000E+00  0.00000000E+00
  0.00000000E+00  0.00000000E+00  0.00000000E+00
  0.00000000E+00  0.00000000E+00  0.00000000E+00
  0.00000000E+00  0.00000000E+00  0.00000000E+00
  0.00000000E+00  0.00000000E+00  0.00000000E+00
  0.00000000E+00  0.00000000E+00  0.00000000E+00
  0.00000000E+00  0.00000000E+00  0.00000000E+00
  0.00000000E+00  0.00000000E+00  0.00000000E+00
  0.00000000E+00  0.00000000E+00  0.00000000E+00
  0.00000000E+00  0.00000000E+00  0.00000000E+00
  0.00000000E+00  0.00000000E+00  0.00000000E+00
  0.00000000E+00  0.00000000E+00  0.00000000E+00
  0.00000000E+00  0.00000000E+00  0.00000000E+00
  0.00000000E+00  0.00000000E+00  0.00000000E+00
  0.00000000E+00  0.00000000E+00  0.00000000E+00
  0.00000000E+00  0.00000000E+00  0.00000000E+00
  0.00000000E+00  0.00000000E+00  0.00000000E+00
  0.00000000E+00  0.00000000E+00  0.00000000E+00
  0.00000000E+00  0.00000000E+00  0.00000000E+00
  0.00000000E+00  0.00000000E+00  0.00000000E+00
  0.00000000E+00  0.00000000E+00  0.00000000E+00
  0.00000000E+00  0.00000000E+00  0.00000000E+00
  0.00000000E+00  0.00000000E+00  0.00000000E+00
  0.00000000E+00  0.00000000E+00  0.00000000E+00
  0.00000000E+00  0.00000000E+00  0.00000000E+00
  0.00000000E+00  0.00000000E+00  0.00000000E+00
  0.00000000E+00  0.00000000E+00  0.00000000E+00
  0.00000000E+00  0.00000000E+00  0.00000000E+00
  0.00000000E+00  0.00000000E+00  0.00000000E+00
  0.00000000E+00  0.00000000E+00  0.00000000E+00
  0.00000000E+00  0.00000000E+00  0.00000000E+00
  0.00000000E+00  0.00000000E+00  0.00000000E+00
  0.00000000E+00  0.00000000E+00  0.00000000E+00
  0.00000000E+00  0.00000000E+00  0.00000000E+00
  0.00000000E+00  0.00000000E+00  0.00000000E+00
  0.00000000E+00  0.00000000E+00  0.00000000E+00
  0.00000000E+00  0.00000000E+00  0.00000000E+00
  0.00000000E+00  0.00000000E+00  0.00000000E+00
  0.00000000E+00  0.00000000E+00  0.00000000E+00
  0.00000000E+00  0.00000000E+00  0.00000000E+00
  0.00000000E+00  0.00000000E+00  0.00000000E+00
  0.00000000E+00  0.00000000E+00  0.00000000E+00
  0.00000000E+00  0.00000000E+00  0.00000000E+00
  0.00000000E+00  0.00000000E+00  0.00000000E+00
  0.00000000E+00  0.00000000E+00  0.00000000E+00
  0.00000000E+00  0.00000000E+00  0.00000000E+00
  0.00000000E+00  0.00000000E+00  0.00000000E+00
  0.00000000E+00  0.00000000E+00  0.00000000E+00
  0.00000000E+00  0.00000000E+00  0.00000000E+00
  0.00000000E+00  0.00000000E+00  0.00000000E+00
  0.00000000E+00  0.00000000E+00  0.00000000E+00
  0.00000000E+00  0.00000000E+00  0.00000000E+00
  0.00000000E+00  0.00000000E+00  0.00000000E+00
  0.00000000E+00  0.00000000E+00  0.00000000E+00
  0.00000000E+00  0.00000000E+00  0.00000000E+00
  0.00000000E+00  0.00000000E+00  0.00000000E+00
  0.00000000E+00  0.00000000E+00  0.00000000E+00
  0.00000000E+00  0.00000000E+00  0.00000000E+00
  0.00000000E+00  0.00000000E+00  0.00000000E+00
  0.00000000E+00  0.00000000E+00  0.00000000E+00
  0.00000000E+00  0.00000000E+00  0.00000000E+00
  0.00000000E+00  0.00000000E+00  0.00000000E+00
  0.00000000E+00  0.00000000E+00  0.00000000E+00
  0.00000000E+00  0.00000000E+00  0.00000000E+00
  0.00000000E+00  0.00000000E+00  0.00000000E+00
  0.00000000E+00  0.00000000E+00  0.00000000E+00
  0.00000000E+00  0.00000000E+00  0.00000000E+00
  0.00000000E+00  0.00000000E+00  0.00000000E+00
  0.00000000E+00  0.00000000E+00  0.00000000E+00
  0.00000000E+00  0.00000000E+00  0.00000000E+00
  0.00000000E+00  0.00000000E+00  0.00000000E+00
  0.00000000E+00  0.00000000E+00  0.00000000E+00
  0.00000000E+00  0.00000000E+00  0.00000000E+00
  0.00000000E+00  0.00000000E+00  0.00000000E+00
  0.00000000E+00  0.00000000E+00  0.00000000E+00
  0.00000000E+00  0.00000000E+00  0.00000000E+00
  0.00000000E+00  0.00000000E+00  0.00000000E+00
  0.00000000E+00  0.00000000E+00  0.00000000E+00
  0.00000000E+00  0.00000000E+00  0.00000000E+00
  0.00000000E+00  0.00000000E+00  0.00000000E+00
  0.00000000E+00  0.00000000E+00  0.00000000E+00
  0.00000000E+00  0.00000000E+00  0.00000000E+00
  0.00000000E+00  0.00000000E+00  0.00000000E+00
  0.00000000E+00  0.00000000E+00  0.00000000E+00
  0.00000000E+00  0.00000000E+00  0.00000000E+00
  0.00000000E+00  0.00000000E+00  0.00000000E+00
  0.00000000E+00  0.00000000E+00  0.00000000E+00
  0.00000000E+00  0.00000000E+00  0.00000000E+00
  0.00000000E+00  0.00000000E+00  0.00000000E+00
  0.00000000E+00  0.00000000E+00  0.00000000E+00
  0.00000000E+00  0.00000000E+00  0.00000000E+00
  0.00000000E+00  0.00000000E+00  0.00000000E+00
  0.00000000E+00  0.00000000E+00  0.00000000E+00
  0.00000000E+00  0.00000000E+00  0.00000000E+00
  0.00000000E+00  0.00000000E+00  0.00000000E+00
  0.00000000E+00  0.00000000E+00  0.00000000E+00
  0.00000000E+00  0.00000000E+00  0.00000000E+00
  0.00000000E+00  0.00000000E+00  0.00000000E+00
  0.00000000E+00  0.00000000E+00  0.00000000E+00
  0.00000000E+00  0.00000000E+00  0.00000000E+00
  0.00000000E+00  0.00000000E+00  0.00000000E+00
  0.00000000E+00  0.00000000E+00  0.00000000E+00
  0.00000000E+00  0.00000000E+00  0.00000000E+00
  0.00000000E+00  0.00000000E+00  0.00000000E+00
  0.00000000E+00  0.00000000E+00  0.00000000E+00
  0.00000000E+00  0.00000000E+00  0.00000000E+00
  0.00000000E+00  0.00000000E+00  0.00000000E+00
  0.00000000E+00  0.00000000E+00  0.00000000E+00
  0.00000000E+00  0.00000000E+00  0.00000000E+00
  0.00000000E+00  0.00000000E+00  0.00000000E+00
  0.00000000E+00  0.00000000E+00  0.00000000E+00
  0.00000000E+00  0.00000000E+00  0.00000000E+00
  0.00000000E+00  0.00000000E+00  0.00000000E+00
  0.00000000E+00  0.00000000E+00  0.00000000E+00
  0.00000000E+00  0.00000000E+00  0.00000000E+00
  0.00000000E+00  0.00000000E+00  0.00000000E+00
  0.00000000E+00  0.00000000E+00  0.00000000E+00
  0.00000000E+00  0.00000000E+00  0.00000000E+00
  0.00000000E+00  0.00000000E+00  0.00000000E+00
  0.00000000E+00  0.00000000E+00  0.00000000E+00
  0.00000000E+00  0.00000000E+00  0.00000000E+00
  0.00000000E+00  0.00000000E+00  0.00000000E+00
  0.00000000E+00  0.00000000E+00  0.00000000E+00
  0.00000000E+00  0.00000000E+00  0.00000000E+00
