#generated using str2pos                
    1.000000000000000     
    12.9303997860339503    0.0043821412910000   -0.0090962251014099
     0.0043833476594552   12.9357486844102745   -0.0122128891293207
    -0.0090973037979934   -0.0122130849182615   12.9272213046787705
   Ta   W 
    64    64
Direct
  0.5016430923416159  0.2521398769973192  0.2485861408945565
  0.3726166891362691  0.1238049792507304  0.1293938339084955
  0.7494047876701841  0.2494987765588313  0.2500513732448985
  0.2505603153220777  0.5028255828415874  0.2476994109272776
  0.4991049904991400  0.4999215302506449  0.2501364493612293
  0.7469268579682363  0.4972048882360064  0.2530693281433212
  0.8763187042318172  0.3766927848528486  0.1257973895375376
  0.2523390747547811  0.7477142123544152  0.2503177997419492
  0.4980661841165751  0.7499614751759784  0.2505330119240052
  0.6283488876503214  0.6259183292440742  0.1240897711406522
  0.8744473047400565  0.6242756439420957  0.1261541388734989
  0.1243163330144103  0.8769982135415164  0.1251453753457250
  0.7498326869877553  0.0010959651842158  0.2474043962707641
  0.1245054544971717  0.1259082068862026  0.3755716422320485
  0.5015425170796698  0.2475725330218010  0.5023152392537820
  0.3706821860763470  0.1238895566781425  0.3741997523676436
  0.7500666362233586  0.2487208970761042  0.4991121958788557
  0.6223671561822451  0.1230652089397271  0.3745434343063896
  0.1256629784181211  0.3719784695793628  0.3754846598010975
  0.3706968721148458  0.3730320425379378  0.3796908634010511
  0.7497556628132360  0.5001907681464829  0.4983861330769228
  0.0007064464234509  0.5007199500138035  0.5018922196362148
  0.2519637153189065  0.7488508623977577  0.4983029190674535
  0.5007618998306137  0.7508840510430383  0.4986445716605765
  0.7472861506967787  0.7486866191933813  0.5011737892247988
  0.0023685319721694  0.7456996497765775  0.4998464554549678
  0.8763108046382091  0.6270764167952051  0.3701800287320867
  0.1235282100701572  0.8788872646625898  0.3736683597867317
  0.4998051697743424 -0.0027499972456813  0.5031973316291491
  0.7479351084457981  0.0008330091919451  0.4997331180407742
  0.8776100269946847  0.8749226355554566  0.3733254778279811
  0.2501879172614113  0.2498390040883582  0.7530578090737765
  0.1247506066140452  0.1229647040412821  0.6224859475782536
  0.0022398477735382  0.2521191260119289  0.7513401359933984
  0.3759226563351514  0.3766449951266906  0.6252839078161143
  0.6238315073913646  0.3750064336974252  0.6296097676041585
  0.0014599776105457  0.4980716858338072  0.7488157233515675
  0.8733457796199874  0.3729836555672152  0.6261159303771207
  0.2535003840086389  0.7501972256496395  0.7489590205341191
  0.5006351549733173  0.7526586948831366  0.7500126096862245
  0.3759541997270823  0.6191351680092022  0.6254503472769720
  0.7473754161678722  0.7507459961145206  0.7470900431187353
  0.1238671384225270  0.8786475624374349  0.6256074061635817
  0.4998356437147162 -0.0000849936918165  0.7501701418640205
  0.8783556475997674  0.8779342303823832  0.6256711892071032
  0.2494189691834933  0.2514271216877782 -0.0018530567255142
  0.5002658773359839  0.2508742464686650 -0.0000348979402466
  0.7480532570213847  0.2488165918271872  0.0002819975678988
  0.0022360308143036  0.2504028291024089 -0.0000762144232875
  0.8746699335401710  0.1233129207811946  0.8725813133862014
  0.2513952427013930  0.4987926590608954  0.0016546349764791
  0.4971453262852486  0.4981223247314094  0.0007839090895832
  0.0036524577031642  0.4978081798268311 -0.0010734804599524
  0.1267228501463515  0.6276433187657577  0.8739043133715235
  0.4986954931013235  0.7522872884331839 -0.0002197579499195
  0.7486248466701818  0.7550901777736171 -0.0007153930790064
  0.6264017778948610  0.6207082109723030  0.8743914199322926
  0.0000592304374540  0.7507505630620519  0.0017579838763635
  0.8742909392871047  0.6249573964903412  0.8748523300553306
  0.2508550957090139  0.0018663713658790 -0.0010756207837700
  0.1241752910681326  0.8759485003927069  0.8738818698553537
  0.5001624329314276 -0.0005536150312476 -0.0020072465062621
  0.7474035398965828  0.0008384872857125  0.0019974516878136
  0.8784290089715354  0.8784846263610454  0.8717734558381214
  0.2478605682956851  0.2514485422259405  0.2476184638160626
  0.1245647744586709  0.1242626500779754  0.1279499141440321
  0.6228045915565017  0.1239395523864727  0.1254284213950954
 -0.0014742619816724  0.2489133425681138  0.2490192782836289
  0.8779553403739522  0.1254008838283969  0.1251284528112527
  0.1233845017082908  0.3737703349329969  0.1286502486169491
  0.3732687081177319  0.3731878024030805  0.1267287061103228
  0.6264958625958106  0.3761591025344376  0.1232437425290008
  0.0025853485840208  0.4991916633218375  0.2503935785450815
  0.1237750766107621  0.6269995797625284  0.1251780890953925
  0.3746091855916795  0.6264918498062441  0.1236184659336595
  0.7475799888186082  0.7528980473757296  0.2497716790461821
  0.0019909299261068  0.7501547086939798  0.2484624304808362
  0.2496597701636909 -0.0013929482501272  0.2489080789205766
  0.5006757104979132 -0.0034228231175413  0.2495381215067720
  0.3731848134728630  0.8769960875589893  0.1258960132922626
  0.6242984080480264  0.8748523048702327  0.1265126070787143
 -0.0022457920119909  0.0029135758704733  0.2477342692692300
  0.8770842890223157  0.8753646637696151  0.1262798502728156
  0.2494261933281947  0.2490657071532859  0.5035881506639603
 -0.0026553286273655  0.2504650362810988  0.5001473352153464
  0.8786854493813677  0.1243046399458718  0.3748001476563397
  0.2481503870107133  0.5013217491369808  0.4998228594154896
  0.5019133048238483  0.5014202857590191  0.4988017754336131
  0.6228909197677910  0.3749729990918839  0.3779019393098042
  0.8788263870741054  0.3736435988379949  0.3744464162515736
  0.1244163154907274  0.6234083324885484  0.3741419360677543
  0.3754716553160342  0.6226157230247327  0.3777450987918917
  0.6253510869411131  0.6251645931607129  0.3747422631005871
  0.2528882484276879 -0.0016847498798809  0.5008891152543677
  0.3732421761418296  0.8775865851297172  0.3742641325094584
  0.6249321596850329  0.8747336092714648  0.3728294530168583
 -0.0019542014416486  0.0023631358863183  0.4988216652614156
  0.4992362010312866  0.2472024797792527  0.7531196643758771
  0.3726883220038706  0.1258621969502760  0.6249437538785431
  0.7490418276092129  0.2490756816397025  0.7510876870676078
  0.6257086261732203  0.1263458610791036  0.6277810028589583
  0.8765468982339214  0.1244917481530769  0.6255725710649187
  0.2495384161331990  0.4983229111204011  0.7519239935523776
  0.1274567612388789  0.3733921393802203  0.6225960986626417
  0.5001537465269699  0.4989815985773501  0.7526225351395440
  0.7507806042030593  0.4995692464479529  0.7494333023817563
  0.1279716193105719  0.6242136795197573  0.6258196867518316
  0.6230401245743061  0.6212404169338238  0.6258325101715008
  0.0005772586010597  0.7474954665763412  0.7475959483212734
  0.8752622636417773  0.6247954440235680  0.6259309566394869
  0.2539258403149145  0.0017048162034142  0.7511285194577144
  0.3728806390255233  0.8759990991780945  0.6246376522241034
  0.7463180463735989  0.0012424221454581  0.7492275909711769
  0.6265390571320538  0.8760273420941163  0.6252505154089916
  0.0002462050873119  0.0036046917292138  0.7495381381752788
  0.1236097714410847  0.1224349540700747  0.8740889360719725
  0.3752942786233814  0.1251796365907563  0.8741728986073658
  0.6261382876487097  0.1271909554815628  0.8723930469392778
  0.1268604644666906  0.3761157734608596  0.8744601786228748
  0.3767001375470334  0.3754805408434989  0.8723066086341825
  0.7491959918938842  0.4967118829033531 -0.0006201016244339
  0.6255358163472537  0.3752526182396110  0.8725080633478453
  0.8721968755282155  0.3750572400818021  0.8745524766429216
  0.2528831559271951  0.7496221965686068  0.0010361217866924
  0.3747348298099633  0.6241192921420268  0.8731269884532025
  0.3722742005226206  0.8753443604570380  0.8749715531722277
  0.6257849599081882  0.8766535148038167  0.8741616271532331
 -0.0001647079697730  0.0030975367297215  0.0016751738861406
 
  0.00000000E+00  0.00000000E+00  0.00000000E+00
  0.00000000E+00  0.00000000E+00  0.00000000E+00
  0.00000000E+00  0.00000000E+00  0.00000000E+00
  0.00000000E+00  0.00000000E+00  0.00000000E+00
  0.00000000E+00  0.00000000E+00  0.00000000E+00
  0.00000000E+00  0.00000000E+00  0.00000000E+00
  0.00000000E+00  0.00000000E+00  0.00000000E+00
  0.00000000E+00  0.00000000E+00  0.00000000E+00
  0.00000000E+00  0.00000000E+00  0.00000000E+00
  0.00000000E+00  0.00000000E+00  0.00000000E+00
  0.00000000E+00  0.00000000E+00  0.00000000E+00
  0.00000000E+00  0.00000000E+00  0.00000000E+00
  0.00000000E+00  0.00000000E+00  0.00000000E+00
  0.00000000E+00  0.00000000E+00  0.00000000E+00
  0.00000000E+00  0.00000000E+00  0.00000000E+00
  0.00000000E+00  0.00000000E+00  0.00000000E+00
  0.00000000E+00  0.00000000E+00  0.00000000E+00
  0.00000000E+00  0.00000000E+00  0.00000000E+00
  0.00000000E+00  0.00000000E+00  0.00000000E+00
  0.00000000E+00  0.00000000E+00  0.00000000E+00
  0.00000000E+00  0.00000000E+00  0.00000000E+00
  0.00000000E+00  0.00000000E+00  0.00000000E+00
  0.00000000E+00  0.00000000E+00  0.00000000E+00
  0.00000000E+00  0.00000000E+00  0.00000000E+00
  0.00000000E+00  0.00000000E+00  0.00000000E+00
  0.00000000E+00  0.00000000E+00  0.00000000E+00
  0.00000000E+00  0.00000000E+00  0.00000000E+00
  0.00000000E+00  0.00000000E+00  0.00000000E+00
  0.00000000E+00  0.00000000E+00  0.00000000E+00
  0.00000000E+00  0.00000000E+00  0.00000000E+00
  0.00000000E+00  0.00000000E+00  0.00000000E+00
  0.00000000E+00  0.00000000E+00  0.00000000E+00
  0.00000000E+00  0.00000000E+00  0.00000000E+00
  0.00000000E+00  0.00000000E+00  0.00000000E+00
  0.00000000E+00  0.00000000E+00  0.00000000E+00
  0.00000000E+00  0.00000000E+00  0.00000000E+00
  0.00000000E+00  0.00000000E+00  0.00000000E+00
  0.00000000E+00  0.00000000E+00  0.00000000E+00
  0.00000000E+00  0.00000000E+00  0.00000000E+00
  0.00000000E+00  0.00000000E+00  0.00000000E+00
  0.00000000E+00  0.00000000E+00  0.00000000E+00
  0.00000000E+00  0.00000000E+00  0.00000000E+00
  0.00000000E+00  0.00000000E+00  0.00000000E+00
  0.00000000E+00  0.00000000E+00  0.00000000E+00
  0.00000000E+00  0.00000000E+00  0.00000000E+00
  0.00000000E+00  0.00000000E+00  0.00000000E+00
  0.00000000E+00  0.00000000E+00  0.00000000E+00
  0.00000000E+00  0.00000000E+00  0.00000000E+00
  0.00000000E+00  0.00000000E+00  0.00000000E+00
  0.00000000E+00  0.00000000E+00  0.00000000E+00
  0.00000000E+00  0.00000000E+00  0.00000000E+00
  0.00000000E+00  0.00000000E+00  0.00000000E+00
  0.00000000E+00  0.00000000E+00  0.00000000E+00
  0.00000000E+00  0.00000000E+00  0.00000000E+00
  0.00000000E+00  0.00000000E+00  0.00000000E+00
  0.00000000E+00  0.00000000E+00  0.00000000E+00
  0.00000000E+00  0.00000000E+00  0.00000000E+00
  0.00000000E+00  0.00000000E+00  0.00000000E+00
  0.00000000E+00  0.00000000E+00  0.00000000E+00
  0.00000000E+00  0.00000000E+00  0.00000000E+00
  0.00000000E+00  0.00000000E+00  0.00000000E+00
  0.00000000E+00  0.00000000E+00  0.00000000E+00
  0.00000000E+00  0.00000000E+00  0.00000000E+00
  0.00000000E+00  0.00000000E+00  0.00000000E+00
  0.00000000E+00  0.00000000E+00  0.00000000E+00
  0.00000000E+00  0.00000000E+00  0.00000000E+00
  0.00000000E+00  0.00000000E+00  0.00000000E+00
  0.00000000E+00  0.00000000E+00  0.00000000E+00
  0.00000000E+00  0.00000000E+00  0.00000000E+00
  0.00000000E+00  0.00000000E+00  0.00000000E+00
  0.00000000E+00  0.00000000E+00  0.00000000E+00
  0.00000000E+00  0.00000000E+00  0.00000000E+00
  0.00000000E+00  0.00000000E+00  0.00000000E+00
  0.00000000E+00  0.00000000E+00  0.00000000E+00
  0.00000000E+00  0.00000000E+00  0.00000000E+00
  0.00000000E+00  0.00000000E+00  0.00000000E+00
  0.00000000E+00  0.00000000E+00  0.00000000E+00
  0.00000000E+00  0.00000000E+00  0.00000000E+00
  0.00000000E+00  0.00000000E+00  0.00000000E+00
  0.00000000E+00  0.00000000E+00  0.00000000E+00
  0.00000000E+00  0.00000000E+00  0.00000000E+00
  0.00000000E+00  0.00000000E+00  0.00000000E+00
  0.00000000E+00  0.00000000E+00  0.00000000E+00
  0.00000000E+00  0.00000000E+00  0.00000000E+00
  0.00000000E+00  0.00000000E+00  0.00000000E+00
  0.00000000E+00  0.00000000E+00  0.00000000E+00
  0.00000000E+00  0.00000000E+00  0.00000000E+00
  0.00000000E+00  0.00000000E+00  0.00000000E+00
  0.00000000E+00  0.00000000E+00  0.00000000E+00
  0.00000000E+00  0.00000000E+00  0.00000000E+00
  0.00000000E+00  0.00000000E+00  0.00000000E+00
  0.00000000E+00  0.00000000E+00  0.00000000E+00
  0.00000000E+00  0.00000000E+00  0.00000000E+00
  0.00000000E+00  0.00000000E+00  0.00000000E+00
  0.00000000E+00  0.00000000E+00  0.00000000E+00
  0.00000000E+00  0.00000000E+00  0.00000000E+00
  0.00000000E+00  0.00000000E+00  0.00000000E+00
  0.00000000E+00  0.00000000E+00  0.00000000E+00
  0.00000000E+00  0.00000000E+00  0.00000000E+00
  0.00000000E+00  0.00000000E+00  0.00000000E+00
  0.00000000E+00  0.00000000E+00  0.00000000E+00
  0.00000000E+00  0.00000000E+00  0.00000000E+00
  0.00000000E+00  0.00000000E+00  0.00000000E+00
  0.00000000E+00  0.00000000E+00  0.00000000E+00
  0.00000000E+00  0.00000000E+00  0.00000000E+00
  0.00000000E+00  0.00000000E+00  0.00000000E+00
  0.00000000E+00  0.00000000E+00  0.00000000E+00
  0.00000000E+00  0.00000000E+00  0.00000000E+00
  0.00000000E+00  0.00000000E+00  0.00000000E+00
  0.00000000E+00  0.00000000E+00  0.00000000E+00
  0.00000000E+00  0.00000000E+00  0.00000000E+00
  0.00000000E+00  0.00000000E+00  0.00000000E+00
  0.00000000E+00  0.00000000E+00  0.00000000E+00
  0.00000000E+00  0.00000000E+00  0.00000000E+00
  0.00000000E+00  0.00000000E+00  0.00000000E+00
  0.00000000E+00  0.00000000E+00  0.00000000E+00
  0.00000000E+00  0.00000000E+00  0.00000000E+00
  0.00000000E+00  0.00000000E+00  0.00000000E+00
  0.00000000E+00  0.00000000E+00  0.00000000E+00
  0.00000000E+00  0.00000000E+00  0.00000000E+00
  0.00000000E+00  0.00000000E+00  0.00000000E+00
  0.00000000E+00  0.00000000E+00  0.00000000E+00
  0.00000000E+00  0.00000000E+00  0.00000000E+00
  0.00000000E+00  0.00000000E+00  0.00000000E+00
  0.00000000E+00  0.00000000E+00  0.00000000E+00
  0.00000000E+00  0.00000000E+00  0.00000000E+00
  0.00000000E+00  0.00000000E+00  0.00000000E+00
  0.00000000E+00  0.00000000E+00  0.00000000E+00
