#BCC aalvarado POSCAR generator         
    12.76000000000000     
     1.0189531607484279   -0.0006489231251207    0.0006223624256707
    -0.0006491301904502    1.0160706434929450   -0.0007183821978033
     0.0006226504551328   -0.0007181105483905    1.0175532809964742
   Ta   W 
    76    52
Direct
  0.4948228051879608  0.4988026317437922  0.4968550280756861
  0.6225532962003013  0.6285109230753603  0.6241841723638712
  0.6224787081659423  0.6277515589386305  0.3742950029797531
  0.6247469521319516  0.3718692639412272  0.3703201918896479
  0.6244076645670933  0.3753305504576493  0.6254470263311387
  0.3708448513560431  0.3738364463598597  0.6274744155305388
  0.3735135480717930  0.6258966163997165  0.6281067719709769
  0.7529308352849687  0.7491055969104244  0.5004935885824388
  0.7534157058349102  0.4999528473125744  0.4987099926860790
  0.7510198444153391  0.5038431199159936  0.7515768255985855
  0.4997456789203425  0.5003329112234634  0.7543795773357742
  0.4975742227776129  0.7523046603375718  0.7526874368357784
  0.7482761144282009  0.7510424989012539  0.2469477871068344
  0.7517556985082099  0.4984671792671910  0.2494323879722345
  0.4957256697308840  0.5004127636215173  0.2508743492498817
  0.7530651397454105  0.2490820826538230  0.4967875810522085
  0.4976710941086964  0.2501252819334513  0.4993903937540152
  0.2461797296619468  0.2501392034059245  0.2486730188579934
  0.2512724972656436  0.4975842082587520  0.2510612755892564
  0.2484288751773478  0.5011951741619616  0.4992947572891135
  0.7517129251955176  0.2486696397028637  0.7516070807006217
  0.4976315539239569  0.2487623806290279  0.7521018884115995
  0.2480861169035735  0.7497509586140414  0.5026105381204539
  0.8739563379621237  0.8776938532693690  0.6258724297476721
  0.6261593863008855  0.8736319053170531  0.6265844539077394
  0.6242214603406562  0.8758535007212487  0.8749362849476738
  0.8783870619866209  0.8757862927194329  0.3732124242285718
  0.8794688759134155  0.6263486541974634  0.3707547407321151
  0.6228535931204753  0.8737419322975818  0.3732296836614404
  0.8749615241931981  0.3736839653466975  0.6261577586474787
  0.8731137305731370  0.3754301863436523  0.8786058564937194
  0.6264204540650162  0.3732827739285755  0.8802588744913622
  0.3712299464958583  0.6268810793002001  0.8766067376406694
  0.3724184255711917  0.8744973977443747  0.3731633840612749
  0.8781552250543028  0.8745191663289457  0.1266473884081223
  0.8794814322677886  0.6254103473665938  0.1253471801537216
  0.6229384226292283  0.6256686511055491  0.1239501569610108
  0.6253725023639244  0.3712498175654565  0.1237899436113335
  0.3751497899715730  0.3717629285388033  0.1215415853644487
  0.3727982965717086  0.6289951697045345  0.1228096922353069
  0.8729859580663868  0.1271139523846321  0.1273296723886520
  0.6245064321056798  0.1267604949043292  0.1235893477860389
  0.6244790665584121  0.1250755871684233  0.3689794530034969
  0.3752812225849172  0.1241222775832244  0.1223223920747576
  0.3714188809504735  0.1231099964467663  0.3734501459114423
  0.8769121598433789  0.1214623933059363  0.6246730688471884
  0.6257397337437980  0.1222017583583367  0.6270382774223396
  0.3682085649298262  0.1244811704822364  0.6247830377379935
  0.1228283554026613  0.3739351903679977  0.3737661453490868
  0.1275044255829533  0.1233433742957715  0.6241499107761155
  0.1257319875443917  0.6279030417465707  0.1245866379960890
  0.1233897488326001  0.6267474565941108  0.3700363009007451
  0.6241529693946829  0.1237895565419101  0.8783269740559855
  0.1308901162225366  0.1246276856762554  0.8746878798069584
  0.1298665558860501  0.3753380981873330  0.8755457293256934
  0.1291450681509695  0.6259405721377460  0.8783261269835210
  0.1265594323657779  0.8765923903027166  0.3733813283670823
  0.1296614812148824  0.8741895503791756  0.8770666781596268
  0.0019020217019830  0.0014568618866229  0.0008717224859405
  0.0009777847034887 -0.0023273064004218  0.7529794353626168
  0.0004090740449780  0.7493459605631602  0.7496037207518563
  0.7501514892788930  0.7514165087704481 -0.0012242349625791
  0.7524119466734489 -0.0026967684166012 -0.0005616281195880
  0.0026108147464691  0.7488504003532092  0.5054494909729302
  0.7502201326833859  0.0011414927936014  0.4972422633057381
  0.0012989730545221  0.4999641400222162  0.5030005836893451
 -0.0002254147299780  0.5032759731646540  0.7494766043955764
 -0.0000210175453326  0.4979478416608483  0.0012778448576186
  0.4998698878223886  0.5005576568513486 -0.0017437766363925
  0.4982145375357114 -0.0008352969431631  0.5007666845932447
  0.4952650919819223 -0.0014161196786809  0.7513511240325619
  0.0035139398862785  0.0036461858325272  0.2487195584913058
  0.4985793319873154 -0.0029895918218439  0.2463592497265377
 -0.0002338323410724  0.2504651120715576  0.4974222177685968
  0.0003847002056656  0.2492930910748828  0.7513632502511867
  0.0016452588437362  0.2498514450685621  0.0030061120220362
  0.2499412902537264  0.2484720686875792  0.0003864342888579
  0.2501189051348137  0.4983664698808096  0.0006270928805607
  0.2486800150973250 -0.0021521385382309  0.5005936001576108
  0.3728757542379710  0.3717486053849413  0.3744069559512767
  0.3740328030932618  0.6287042922590681  0.3739470212297007
  0.7524076039379621  0.7484088160193465  0.7535894002541049
  0.4957908169375897  0.7501589047303099  0.5004793004429602
  0.4982763207609154  0.7514050615553541  0.2475204048110575
  0.7538896031646261  0.2510477643557160  0.2500444917084548
  0.4969692905669130  0.2498563969995610  0.2498165341627773
  0.2469462625472381  0.2504578616204177  0.4979528486000028
  0.2506561735157107  0.2502967553996370  0.7517049565350634
  0.2484249627188907  0.4994941988916543  0.7492798098523374
  0.2513040443540143  0.7514902969397351  0.2486179591230244
  0.2494796106281907  0.7521401992221443  0.7490309269909808
  0.8757630797806950  0.8736522413302608  0.8750167910943620
  0.8743144689636383  0.6270334884533003  0.6266124344632614
  0.8755260915536335  0.6259096097520924  0.8779018186261787
  0.6246070497325770  0.6270658126238540  0.8765022181762242
  0.8770216351081099  0.3744357752083590  0.3710479787152571
  0.3726250141962390  0.3740990292349138  0.8763918314366163
  0.3724615216922120  0.8749643030159692  0.6258549579882574
  0.3733669930175430  0.8753553299999489  0.8779322458692368
  0.6222942016726958  0.8757586362568157  0.1236344288028669
  0.8742282386712742  0.3742288939673475  0.1255927105660270
  0.3736793254078578  0.8751251303301388  0.1234066809873422
  0.8761171026442082  0.1247339051495690  0.3720453225695410
  0.1275586801766914  0.1246814883554431  0.1246995748877880
  0.1255742977048225  0.1240785239594442  0.3758975173208706
  0.1251333722197604  0.3754509238097881  0.1246009896180822
  0.1275156457747178  0.3729114809720138  0.6264645096968732
  0.1274344879367902  0.6251445321045214  0.6282786914149068
  0.8743085065051457  0.1246361902383539  0.8767125181328459
  0.3735011637452201  0.1241262767724423  0.8773119336158687
  0.1283152236276671  0.8739458398659961  0.1246356316243464
  0.1267366392200640  0.8776060895707617  0.6260534820205047
  0.0002789675043146  0.7514460894548078 -0.0019014360119840
  0.7519275466354421 -0.0005958164717694  0.7530779840579717
  0.0017899396661010  0.0013235456375772  0.4982898434452727
  0.7512154147314885  0.5025681416873908 -0.0001997829085711
  0.5003537726494252  0.7518772083677049 -0.0004614155730659
  0.4979214029771836 -0.0021448044328311 -0.0004654338382973
  0.0027667144622175  0.7529309618791361  0.2485414314757830
  0.7503875286046870  0.0003715227532070  0.2485267042217407
  0.0007091229785836  0.4965066861028074  0.2483122304062541
  0.0007324225793835  0.2493132500797023  0.2498037229782535
  0.7529954827457722  0.2487935252541620  0.0009604746076798
  0.4973439391924532  0.2493547458925077 -0.0024711451044824
  0.2515215446211949  0.7543945902266372  0.0011241808447217
  0.2478531446731713  0.0007398482819981  0.2468281602417913
  0.2515482865203050 -0.0020715579705158  0.7507418453664080
  0.2515957002986345 -0.0005352443998995  0.0005216377150147
 
  0.00000000E+00  0.00000000E+00  0.00000000E+00
  0.00000000E+00  0.00000000E+00  0.00000000E+00
  0.00000000E+00  0.00000000E+00  0.00000000E+00
  0.00000000E+00  0.00000000E+00  0.00000000E+00
  0.00000000E+00  0.00000000E+00  0.00000000E+00
  0.00000000E+00  0.00000000E+00  0.00000000E+00
  0.00000000E+00  0.00000000E+00  0.00000000E+00
  0.00000000E+00  0.00000000E+00  0.00000000E+00
  0.00000000E+00  0.00000000E+00  0.00000000E+00
  0.00000000E+00  0.00000000E+00  0.00000000E+00
  0.00000000E+00  0.00000000E+00  0.00000000E+00
  0.00000000E+00  0.00000000E+00  0.00000000E+00
  0.00000000E+00  0.00000000E+00  0.00000000E+00
  0.00000000E+00  0.00000000E+00  0.00000000E+00
  0.00000000E+00  0.00000000E+00  0.00000000E+00
  0.00000000E+00  0.00000000E+00  0.00000000E+00
  0.00000000E+00  0.00000000E+00  0.00000000E+00
  0.00000000E+00  0.00000000E+00  0.00000000E+00
  0.00000000E+00  0.00000000E+00  0.00000000E+00
  0.00000000E+00  0.00000000E+00  0.00000000E+00
  0.00000000E+00  0.00000000E+00  0.00000000E+00
  0.00000000E+00  0.00000000E+00  0.00000000E+00
  0.00000000E+00  0.00000000E+00  0.00000000E+00
  0.00000000E+00  0.00000000E+00  0.00000000E+00
  0.00000000E+00  0.00000000E+00  0.00000000E+00
  0.00000000E+00  0.00000000E+00  0.00000000E+00
  0.00000000E+00  0.00000000E+00  0.00000000E+00
  0.00000000E+00  0.00000000E+00  0.00000000E+00
  0.00000000E+00  0.00000000E+00  0.00000000E+00
  0.00000000E+00  0.00000000E+00  0.00000000E+00
  0.00000000E+00  0.00000000E+00  0.00000000E+00
  0.00000000E+00  0.00000000E+00  0.00000000E+00
  0.00000000E+00  0.00000000E+00  0.00000000E+00
  0.00000000E+00  0.00000000E+00  0.00000000E+00
  0.00000000E+00  0.00000000E+00  0.00000000E+00
  0.00000000E+00  0.00000000E+00  0.00000000E+00
  0.00000000E+00  0.00000000E+00  0.00000000E+00
  0.00000000E+00  0.00000000E+00  0.00000000E+00
  0.00000000E+00  0.00000000E+00  0.00000000E+00
  0.00000000E+00  0.00000000E+00  0.00000000E+00
  0.00000000E+00  0.00000000E+00  0.00000000E+00
  0.00000000E+00  0.00000000E+00  0.00000000E+00
  0.00000000E+00  0.00000000E+00  0.00000000E+00
  0.00000000E+00  0.00000000E+00  0.00000000E+00
  0.00000000E+00  0.00000000E+00  0.00000000E+00
  0.00000000E+00  0.00000000E+00  0.00000000E+00
  0.00000000E+00  0.00000000E+00  0.00000000E+00
  0.00000000E+00  0.00000000E+00  0.00000000E+00
  0.00000000E+00  0.00000000E+00  0.00000000E+00
  0.00000000E+00  0.00000000E+00  0.00000000E+00
  0.00000000E+00  0.00000000E+00  0.00000000E+00
  0.00000000E+00  0.00000000E+00  0.00000000E+00
  0.00000000E+00  0.00000000E+00  0.00000000E+00
  0.00000000E+00  0.00000000E+00  0.00000000E+00
  0.00000000E+00  0.00000000E+00  0.00000000E+00
  0.00000000E+00  0.00000000E+00  0.00000000E+00
  0.00000000E+00  0.00000000E+00  0.00000000E+00
  0.00000000E+00  0.00000000E+00  0.00000000E+00
  0.00000000E+00  0.00000000E+00  0.00000000E+00
  0.00000000E+00  0.00000000E+00  0.00000000E+00
  0.00000000E+00  0.00000000E+00  0.00000000E+00
  0.00000000E+00  0.00000000E+00  0.00000000E+00
  0.00000000E+00  0.00000000E+00  0.00000000E+00
  0.00000000E+00  0.00000000E+00  0.00000000E+00
  0.00000000E+00  0.00000000E+00  0.00000000E+00
  0.00000000E+00  0.00000000E+00  0.00000000E+00
  0.00000000E+00  0.00000000E+00  0.00000000E+00
  0.00000000E+00  0.00000000E+00  0.00000000E+00
  0.00000000E+00  0.00000000E+00  0.00000000E+00
  0.00000000E+00  0.00000000E+00  0.00000000E+00
  0.00000000E+00  0.00000000E+00  0.00000000E+00
  0.00000000E+00  0.00000000E+00  0.00000000E+00
  0.00000000E+00  0.00000000E+00  0.00000000E+00
  0.00000000E+00  0.00000000E+00  0.00000000E+00
  0.00000000E+00  0.00000000E+00  0.00000000E+00
  0.00000000E+00  0.00000000E+00  0.00000000E+00
  0.00000000E+00  0.00000000E+00  0.00000000E+00
  0.00000000E+00  0.00000000E+00  0.00000000E+00
  0.00000000E+00  0.00000000E+00  0.00000000E+00
  0.00000000E+00  0.00000000E+00  0.00000000E+00
  0.00000000E+00  0.00000000E+00  0.00000000E+00
  0.00000000E+00  0.00000000E+00  0.00000000E+00
  0.00000000E+00  0.00000000E+00  0.00000000E+00
  0.00000000E+00  0.00000000E+00  0.00000000E+00
  0.00000000E+00  0.00000000E+00  0.00000000E+00
  0.00000000E+00  0.00000000E+00  0.00000000E+00
  0.00000000E+00  0.00000000E+00  0.00000000E+00
  0.00000000E+00  0.00000000E+00  0.00000000E+00
  0.00000000E+00  0.00000000E+00  0.00000000E+00
  0.00000000E+00  0.00000000E+00  0.00000000E+00
  0.00000000E+00  0.00000000E+00  0.00000000E+00
  0.00000000E+00  0.00000000E+00  0.00000000E+00
  0.00000000E+00  0.00000000E+00  0.00000000E+00
  0.00000000E+00  0.00000000E+00  0.00000000E+00
  0.00000000E+00  0.00000000E+00  0.00000000E+00
  0.00000000E+00  0.00000000E+00  0.00000000E+00
  0.00000000E+00  0.00000000E+00  0.00000000E+00
  0.00000000E+00  0.00000000E+00  0.00000000E+00
  0.00000000E+00  0.00000000E+00  0.00000000E+00
  0.00000000E+00  0.00000000E+00  0.00000000E+00
  0.00000000E+00  0.00000000E+00  0.00000000E+00
  0.00000000E+00  0.00000000E+00  0.00000000E+00
  0.00000000E+00  0.00000000E+00  0.00000000E+00
  0.00000000E+00  0.00000000E+00  0.00000000E+00
  0.00000000E+00  0.00000000E+00  0.00000000E+00
  0.00000000E+00  0.00000000E+00  0.00000000E+00
  0.00000000E+00  0.00000000E+00  0.00000000E+00
  0.00000000E+00  0.00000000E+00  0.00000000E+00
  0.00000000E+00  0.00000000E+00  0.00000000E+00
  0.00000000E+00  0.00000000E+00  0.00000000E+00
  0.00000000E+00  0.00000000E+00  0.00000000E+00
  0.00000000E+00  0.00000000E+00  0.00000000E+00
  0.00000000E+00  0.00000000E+00  0.00000000E+00
  0.00000000E+00  0.00000000E+00  0.00000000E+00
  0.00000000E+00  0.00000000E+00  0.00000000E+00
  0.00000000E+00  0.00000000E+00  0.00000000E+00
  0.00000000E+00  0.00000000E+00  0.00000000E+00
  0.00000000E+00  0.00000000E+00  0.00000000E+00
  0.00000000E+00  0.00000000E+00  0.00000000E+00
  0.00000000E+00  0.00000000E+00  0.00000000E+00
  0.00000000E+00  0.00000000E+00  0.00000000E+00
  0.00000000E+00  0.00000000E+00  0.00000000E+00
  0.00000000E+00  0.00000000E+00  0.00000000E+00
  0.00000000E+00  0.00000000E+00  0.00000000E+00
  0.00000000E+00  0.00000000E+00  0.00000000E+00
  0.00000000E+00  0.00000000E+00  0.00000000E+00
  0.00000000E+00  0.00000000E+00  0.00000000E+00
  0.00000000E+00  0.00000000E+00  0.00000000E+00
