#BCC aalvarado POSCAR generator         
    12.76000000000000     
     1.0010219130229321    0.0000497074711529    0.0003312927098064
     0.0000497036417438    1.0012148908641150   -0.0000946725148317
     0.0003313555260664   -0.0000946728180262    1.0010126420639098
   Ta   W 
    25   103
Direct
  0.6250770451106430  0.6254531557551120  0.3753623558732440
  0.6249721066373021  0.3736676055608545  0.6265252401737915
  0.7527310683636744  0.7517442636909549  0.2507196002761731
  0.7473420800408159  0.2493041638859725  0.2480024098580729
  0.2518248214666496  0.2480089871756379  0.2509873788446678
  0.2507110104709140  0.4993686862667813  0.5014070270470675
  0.2510393743356970  0.7514181095635897  0.7491758512922787
  0.8746435827607923  0.3762045986046035  0.3749137039756551
  0.6230875505462127  0.6255158173143555  0.1247857499181834
  0.6243159490278573  0.8765288730816674  0.1235067792513755
  0.3749127427898332  0.6254083741374286  0.1245192855203104
  0.8749146217196846  0.1229730353709936  0.3750885734107377
  0.1254939151252245  0.3764358963815588  0.1250398107088520
  0.1254563847018222  0.6257379459147581  0.1252358621767410
  0.1241489016263012  0.6270911510621138  0.3741582579058449
  0.1271028776581681  0.1226811321092843  0.8748749468551046
  0.1250944055891027  0.6258702189135966  0.8765875767739243
 -0.0006778134910092  0.4995906046567678  0.7491795052026216
  0.7497260235430230  0.4991268759127268 -0.0014880655686287
  0.4997976580778827  0.0002251752623501  0.5003403431319462
  0.0018193046629450  0.2490776501717052  0.5021629793418628
 -0.0006247841198540  0.2503750083826978  0.7493234520401807
 -0.0016845551542435  0.2489689468006783 -0.0007455923059533
  0.4970204033262270  0.4988677828568451  0.4998573278727338
  0.6260635296168470  0.6258390331171665  0.6258848244176304
  0.6246902311390236  0.3745968809532110  0.3749217451808373
  0.3756756072397407  0.3732718508706733  0.3745519050137129
  0.3753249199105217  0.3727633218114746  0.6272817315892939
  0.3745608413363838  0.6266764209423030  0.3735271209830098
  0.3758713597407343  0.6259901804580441  0.6262307675496240
  0.7505188105425280  0.7516499585243447  0.7502498492192723
  0.7519696335484195  0.7521357402723973  0.5008295196127533
  0.7509514338074604  0.5004453269515629  0.5004525289549656
  0.7510544604141307  0.5002379324540123  0.7518015055328309
  0.4988314387637214  0.4995975914851313  0.7516778891746818
  0.4988549404227069  0.7522291362221089  0.5009522589815596
  0.4997222297918818  0.7511825631779927  0.7506909546983855
  0.7503367036738077  0.4992539171500959  0.2484221798092801
  0.4993095860536355  0.4973594531267601  0.2503352023178948
  0.4986191032766316  0.7523265330235679  0.2511191609142334
  0.4997090076468625  0.2491746838617613  0.2493950102287615
  0.7491485843237933  0.2484173472337642  0.5007659672179405
  0.4990994070184255  0.2482293417278180  0.4998885557046537
  0.2501663007213313  0.2493481861130450  0.5003136633032622
  0.2513481341996199  0.4983591882272021  0.2519017699179785
  0.7494347538580415  0.2483143060846944  0.7507971415055634
  0.4994805371015678  0.2486991925555520  0.7513425870838889
  0.2514628713659179  0.2498011972524585  0.7494028235203741
  0.2505217194149159  0.4994323010367779  0.7492875501521685
  0.2502665894046661  0.7533739354955075  0.2509789028688998
  0.2498886304095392  0.7513105493840564  0.5011395989359982
  0.8746342021243315  0.8749312776545347  0.8746130979893940
  0.8752970358880692  0.8748070579426100  0.6254859167626865
  0.8741241580064880  0.6269098174969713  0.6246964884704540
  0.8747399884645193  0.6271634881648825  0.8744686040966668
  0.6244193014143171  0.6257262532590292  0.8740676178584150
  0.6259734149177174  0.8748839236008388  0.6261446810230983
  0.6252463928267958  0.8756125048566566  0.8747118495008888
  0.8764494878650824  0.8756716576687724  0.3760501646761262
  0.8758648981586055  0.6250542488836126  0.3759648469214863
  0.6246959463188777  0.8754226831113777  0.3749641806988953
  0.8725649128089185  0.3757288198138993  0.6242236977336049
  0.8725325018978759  0.3747255569316431  0.8747660206073997
  0.6233358032789192  0.3734371177563895  0.8744447670280399
  0.3760457877542836  0.3743373354755434  0.8751765875206886
  0.3757999741316176  0.6243922724905306  0.8759321453239660
  0.3737393934915875  0.8752216775310618  0.3744360534643509
  0.3748378788205269  0.8757847292616707  0.6250674346811241
  0.3762562457831335  0.8760549295600709  0.8754455533530446
  0.8759668119355681  0.8758923491131818  0.1239138982077238
  0.8762734902839810  0.6259575951052978  0.1246270316977613
  0.8752842287493786  0.3754337529007846  0.1255223415571423
  0.6232301365782633  0.3741361068379744  0.1240860117717895
  0.3757361727433253  0.3749726146925233  0.1237671249111836
  0.3746783816765161  0.8754921232525181  0.1248684685648588
  0.8744535925117637  0.1228853319029133  0.1245897504410187
  0.6238562885606502  0.1242355012935948  0.1235256339962829
  0.6244559410028041  0.1245940004428131  0.3749465490218074
  0.3760630668426407  0.1240325833660522  0.1241834940442677
  0.3750348135873549  0.1241703192370074  0.3750312204776369
  0.8734654523881760  0.1223115649553181  0.6251768071602768
  0.6251309792113036  0.1249788046709161  0.6263018400496749
  0.3748701713990844  0.1250306935731131  0.6259948445603398
  0.1255559152033439  0.1232384615396496  0.1249062529184605
  0.1256093606336344  0.1225721526153350  0.3752976855686778
  0.1245943908264874  0.3757288441548418  0.3743554958965295
  0.1268270813866317  0.1227420651902674  0.6252357991326423
  0.1269186924534619  0.3744266421451460  0.6252554777124361
  0.1240117705783770  0.6265500424174932  0.6243434990523788
  0.8730584651960605  0.1224567545994204  0.8747994761026769
  0.6244895744227151  0.1245124406032640  0.8749084067925171
  0.3759386268593369  0.1250205903624044  0.8751197636055575
  0.1279411381059684  0.3751813316137934  0.8758052705959418
  0.1249264470812330  0.8753833484411275  0.1254885959957071
  0.1253599347480896  0.8752039061038568  0.3749712689464622
  0.1240871017516699  0.8759779116447477  0.6239678603732171
  0.1244197612196217  0.8757981443608888  0.8755322735142903
 -0.0006399413352410 -0.0007936778170314  0.0007847107124557
 -0.0008455204147071 -0.0009387314339451  0.7494087924175143
 -0.0006220278829223  0.7508113902171386  0.7491659829963346
 -0.0012099919566139  0.7524285233415560 -0.0001932005855099
  0.7512814275168633  0.7505418125473892 -0.0022353683683530
  0.7497240975269561 -0.0002041564180236  0.7501260018595393
  0.7502619850649327  0.0006971356689447 -0.0017547053822174
  0.0010181281756722 -0.0010915204813764  0.5004267499016694
 -0.0003607391876401  0.7516163075824362  0.5007077274797701
  0.7492637269095870 -0.0008946890499695  0.5015241956209434
  0.0007959300301033  0.5006553384150221  0.5015020400208416
 -0.0026148171534796  0.4998034997223328 -0.0011540402784340
  0.5003697487220570  0.4979615523005034 -0.0015274028535088
  0.4993655738456109  0.7514329012318989 -0.0026330679952931
  0.5004964419849588  0.0004043849071148  0.7499762573279684
  0.4994528697915346  0.0014237067752903 -0.0009582172910484
  0.0013470637972535 -0.0011711810269571  0.2494067904189513
 -0.0007317253597995  0.7524591738742055  0.2502417728729529
  0.7500569887327712  0.0004323710804642  0.2495136974282633
 -0.0012395915844687  0.5011199538486967  0.2500781351528337
  0.4987324467970526  0.0013771016260864  0.2506172282713248
  0.0008571164391942  0.2486839049647735  0.2493256108385296
  0.7488125413766814  0.2495137870040278 -0.0006811287912802
  0.5000709854493078  0.2492905400123394 -0.0005004597260008
  0.2520093685175958  0.2489597670374072  0.0000875333316219
  0.2519849827287862  0.4987211335660222 -0.0016359129147355
  0.2505404362087747  0.7529188672553313 -0.0010189826697947
  0.2498085690982873  0.0003835420016097  0.2502437800284781
  0.2502150693738467 -0.0000298573553906  0.5000272547413389
  0.2509742431673835 -0.0005345206969814  0.7494653565390755
  0.2509034621720309 -0.0004198176437752  0.0008179445499380
 
  0.00000000E+00  0.00000000E+00  0.00000000E+00
  0.00000000E+00  0.00000000E+00  0.00000000E+00
  0.00000000E+00  0.00000000E+00  0.00000000E+00
  0.00000000E+00  0.00000000E+00  0.00000000E+00
  0.00000000E+00  0.00000000E+00  0.00000000E+00
  0.00000000E+00  0.00000000E+00  0.00000000E+00
  0.00000000E+00  0.00000000E+00  0.00000000E+00
  0.00000000E+00  0.00000000E+00  0.00000000E+00
  0.00000000E+00  0.00000000E+00  0.00000000E+00
  0.00000000E+00  0.00000000E+00  0.00000000E+00
  0.00000000E+00  0.00000000E+00  0.00000000E+00
  0.00000000E+00  0.00000000E+00  0.00000000E+00
  0.00000000E+00  0.00000000E+00  0.00000000E+00
  0.00000000E+00  0.00000000E+00  0.00000000E+00
  0.00000000E+00  0.00000000E+00  0.00000000E+00
  0.00000000E+00  0.00000000E+00  0.00000000E+00
  0.00000000E+00  0.00000000E+00  0.00000000E+00
  0.00000000E+00  0.00000000E+00  0.00000000E+00
  0.00000000E+00  0.00000000E+00  0.00000000E+00
  0.00000000E+00  0.00000000E+00  0.00000000E+00
  0.00000000E+00  0.00000000E+00  0.00000000E+00
  0.00000000E+00  0.00000000E+00  0.00000000E+00
  0.00000000E+00  0.00000000E+00  0.00000000E+00
  0.00000000E+00  0.00000000E+00  0.00000000E+00
  0.00000000E+00  0.00000000E+00  0.00000000E+00
  0.00000000E+00  0.00000000E+00  0.00000000E+00
  0.00000000E+00  0.00000000E+00  0.00000000E+00
  0.00000000E+00  0.00000000E+00  0.00000000E+00
  0.00000000E+00  0.00000000E+00  0.00000000E+00
  0.00000000E+00  0.00000000E+00  0.00000000E+00
  0.00000000E+00  0.00000000E+00  0.00000000E+00
  0.00000000E+00  0.00000000E+00  0.00000000E+00
  0.00000000E+00  0.00000000E+00  0.00000000E+00
  0.00000000E+00  0.00000000E+00  0.00000000E+00
  0.00000000E+00  0.00000000E+00  0.00000000E+00
  0.00000000E+00  0.00000000E+00  0.00000000E+00
  0.00000000E+00  0.00000000E+00  0.00000000E+00
  0.00000000E+00  0.00000000E+00  0.00000000E+00
  0.00000000E+00  0.00000000E+00  0.00000000E+00
  0.00000000E+00  0.00000000E+00  0.00000000E+00
  0.00000000E+00  0.00000000E+00  0.00000000E+00
  0.00000000E+00  0.00000000E+00  0.00000000E+00
  0.00000000E+00  0.00000000E+00  0.00000000E+00
  0.00000000E+00  0.00000000E+00  0.00000000E+00
  0.00000000E+00  0.00000000E+00  0.00000000E+00
  0.00000000E+00  0.00000000E+00  0.00000000E+00
  0.00000000E+00  0.00000000E+00  0.00000000E+00
  0.00000000E+00  0.00000000E+00  0.00000000E+00
  0.00000000E+00  0.00000000E+00  0.00000000E+00
  0.00000000E+00  0.00000000E+00  0.00000000E+00
  0.00000000E+00  0.00000000E+00  0.00000000E+00
  0.00000000E+00  0.00000000E+00  0.00000000E+00
  0.00000000E+00  0.00000000E+00  0.00000000E+00
  0.00000000E+00  0.00000000E+00  0.00000000E+00
  0.00000000E+00  0.00000000E+00  0.00000000E+00
  0.00000000E+00  0.00000000E+00  0.00000000E+00
  0.00000000E+00  0.00000000E+00  0.00000000E+00
  0.00000000E+00  0.00000000E+00  0.00000000E+00
  0.00000000E+00  0.00000000E+00  0.00000000E+00
  0.00000000E+00  0.00000000E+00  0.00000000E+00
  0.00000000E+00  0.00000000E+00  0.00000000E+00
  0.00000000E+00  0.00000000E+00  0.00000000E+00
  0.00000000E+00  0.00000000E+00  0.00000000E+00
  0.00000000E+00  0.00000000E+00  0.00000000E+00
  0.00000000E+00  0.00000000E+00  0.00000000E+00
  0.00000000E+00  0.00000000E+00  0.00000000E+00
  0.00000000E+00  0.00000000E+00  0.00000000E+00
  0.00000000E+00  0.00000000E+00  0.00000000E+00
  0.00000000E+00  0.00000000E+00  0.00000000E+00
  0.00000000E+00  0.00000000E+00  0.00000000E+00
  0.00000000E+00  0.00000000E+00  0.00000000E+00
  0.00000000E+00  0.00000000E+00  0.00000000E+00
  0.00000000E+00  0.00000000E+00  0.00000000E+00
  0.00000000E+00  0.00000000E+00  0.00000000E+00
  0.00000000E+00  0.00000000E+00  0.00000000E+00
  0.00000000E+00  0.00000000E+00  0.00000000E+00
  0.00000000E+00  0.00000000E+00  0.00000000E+00
  0.00000000E+00  0.00000000E+00  0.00000000E+00
  0.00000000E+00  0.00000000E+00  0.00000000E+00
  0.00000000E+00  0.00000000E+00  0.00000000E+00
  0.00000000E+00  0.00000000E+00  0.00000000E+00
  0.00000000E+00  0.00000000E+00  0.00000000E+00
  0.00000000E+00  0.00000000E+00  0.00000000E+00
  0.00000000E+00  0.00000000E+00  0.00000000E+00
  0.00000000E+00  0.00000000E+00  0.00000000E+00
  0.00000000E+00  0.00000000E+00  0.00000000E+00
  0.00000000E+00  0.00000000E+00  0.00000000E+00
  0.00000000E+00  0.00000000E+00  0.00000000E+00
  0.00000000E+00  0.00000000E+00  0.00000000E+00
  0.00000000E+00  0.00000000E+00  0.00000000E+00
  0.00000000E+00  0.00000000E+00  0.00000000E+00
  0.00000000E+00  0.00000000E+00  0.00000000E+00
  0.00000000E+00  0.00000000E+00  0.00000000E+00
  0.00000000E+00  0.00000000E+00  0.00000000E+00
  0.00000000E+00  0.00000000E+00  0.00000000E+00
  0.00000000E+00  0.00000000E+00  0.00000000E+00
  0.00000000E+00  0.00000000E+00  0.00000000E+00
  0.00000000E+00  0.00000000E+00  0.00000000E+00
  0.00000000E+00  0.00000000E+00  0.00000000E+00
  0.00000000E+00  0.00000000E+00  0.00000000E+00
  0.00000000E+00  0.00000000E+00  0.00000000E+00
  0.00000000E+00  0.00000000E+00  0.00000000E+00
  0.00000000E+00  0.00000000E+00  0.00000000E+00
  0.00000000E+00  0.00000000E+00  0.00000000E+00
  0.00000000E+00  0.00000000E+00  0.00000000E+00
  0.00000000E+00  0.00000000E+00  0.00000000E+00
  0.00000000E+00  0.00000000E+00  0.00000000E+00
  0.00000000E+00  0.00000000E+00  0.00000000E+00
  0.00000000E+00  0.00000000E+00  0.00000000E+00
  0.00000000E+00  0.00000000E+00  0.00000000E+00
  0.00000000E+00  0.00000000E+00  0.00000000E+00
  0.00000000E+00  0.00000000E+00  0.00000000E+00
  0.00000000E+00  0.00000000E+00  0.00000000E+00
  0.00000000E+00  0.00000000E+00  0.00000000E+00
  0.00000000E+00  0.00000000E+00  0.00000000E+00
  0.00000000E+00  0.00000000E+00  0.00000000E+00
  0.00000000E+00  0.00000000E+00  0.00000000E+00
  0.00000000E+00  0.00000000E+00  0.00000000E+00
  0.00000000E+00  0.00000000E+00  0.00000000E+00
  0.00000000E+00  0.00000000E+00  0.00000000E+00
  0.00000000E+00  0.00000000E+00  0.00000000E+00
  0.00000000E+00  0.00000000E+00  0.00000000E+00
  0.00000000E+00  0.00000000E+00  0.00000000E+00
  0.00000000E+00  0.00000000E+00  0.00000000E+00
  0.00000000E+00  0.00000000E+00  0.00000000E+00
  0.00000000E+00  0.00000000E+00  0.00000000E+00
  0.00000000E+00  0.00000000E+00  0.00000000E+00
  0.00000000E+00  0.00000000E+00  0.00000000E+00
