#BCC aalvarado POSCAR generator         
    12.76000000000000     
     1.0011001091663627    0.0001859825300557   -0.0000774932127012
     0.0001860364947662    1.0013568641015618    0.0000692580809108
    -0.0000775473681738    0.0000692541593597    1.0007943330853450
   Ta   W 
    25   103
Direct
  0.6259791636169433  0.6266112953400053  0.6261757246098211
  0.2468376830651879  0.2487416239553307  0.7508777594624876
  0.8741387378643435  0.8736845623666798  0.8737915915927610
  0.6245205275670404  0.8754146857757759  0.3751113629534069
  0.6247903347345033  0.3750177005272537  0.8753895782040347
  0.3760768195115995  0.3766667857214959  0.8763363043492416
  0.8733327849797283  0.8728148273560513  0.1247872493300207
  0.8733176827731822  0.3759557282878719  0.1251078128280370
  0.3751863073159651  0.1253076986849411  0.1261012456414254
  0.8740021230662302  0.1234326060812293  0.6241303171650762
  0.3757839732745462  0.1228497246419259  0.6239243848045425
  0.1283371070949797  0.1258034385083076  0.1248224293909699
  0.0009317968787596  0.0002333345376753 -0.0006297986702433
  0.0006627379023441  0.5009169195351700  0.5002038237105288
  0.0009851096940626  0.5013288378438900 -0.0008451735013589
  0.5006763020908296 -0.0016311824319341 -0.0009426306265753
  0.0002218605287285 -0.0003794805132825  0.2517961821173639
 -0.0001679406696345  0.2500952932119709  0.2519445817997813
  0.0006551708360977  0.2507378941545135  0.7503211717930683
  0.4977174740169956  0.5028023451268965  0.4993338349766149
  0.6258619825693968  0.6266666612835031  0.3736347829997976
  0.6253626947847933  0.3739814003462744  0.3739192147495923
  0.3740792214880426  0.3743292910180912  0.3737950550921859
  0.6256673903603645  0.3745238821810102  0.6261557837361010
  0.3749243651220372  0.3747413353717135  0.6251387970547464
  0.3736857745811423  0.6263438043938310  0.3735014425847540
  0.3739755036420065  0.6268762775321463  0.6260563034573977
  0.7502062959759552  0.7502580615210647  0.7501838745591499
  0.7528265905026078  0.7515654058895810  0.5007975821967565
  0.7541306093331692  0.5003219786134800  0.4999746555301348
  0.7526686037687044  0.5013055424635601  0.7513361792687631
  0.4991890616120593  0.5034492582304297  0.7516700321866223
  0.4972765129608969  0.7519850877859078  0.5007535181912439
  0.4987336315054414  0.7515029747847105  0.7512964043881984
  0.7505415724208159  0.7494412946519019  0.2490491720698983
  0.7506917274541799  0.5008440094312929  0.2485423860101505
  0.4986928446331748  0.5012090394591615  0.2469672993669119
  0.4979648819394336  0.7503687448840485  0.2479901804640013
  0.7499778087787966  0.2487711592217162  0.2496756373636113
  0.5008751933650004  0.2490682100084221  0.2488373226173654
  0.7511734835601762  0.2483074875431498  0.4991658307965865
  0.5007557794456815  0.2467942488491006  0.4986315752275566
  0.2495604332064801  0.2512648125516123  0.2506229393676874
  0.2475418310342490  0.2484754334207905  0.4993556535700354
  0.2492808884088636  0.5017932363782127  0.2488685017257091
  0.2473064163680087  0.5021267599125796  0.4994793163003585
  0.7515703291161071  0.2488274973447249  0.7510147816705317
  0.5006556843824014  0.2466849143626649  0.7512937048627230
  0.2480227850291190  0.5023815573920335  0.7505764970004196
  0.2499122676322926  0.7496697120266818  0.2499224062877543
  0.2490679632577542  0.7507138192966600  0.4999886910239066
  0.2497908714206637  0.7502854560867723  0.7500238346710369
  0.8754115045141171  0.8747844208553457  0.6249410341101349
  0.8751526564335372  0.6261489265553822  0.6255647621968403
  0.8746909459518186  0.6259513135885284  0.8741750955065321
  0.6247433259574836  0.6253203411674225  0.8755508736491417
  0.6245978069370628  0.8750936963849523  0.6249079472585539
  0.6250072796127502  0.8743823930792985  0.8740458308056084
  0.8745097640756732  0.8741644687781799  0.3759850937083686
  0.8753298687439864  0.6259843890108685  0.3745706266212803
  0.8741982578027040  0.3753444181077024  0.3748004783015216
  0.8741600559522918  0.3750657981416644  0.6249920507871389
  0.8735571741468192  0.3756068792349535  0.8753582126836154
  0.3748406414071763  0.6259482842737010  0.8757607124509478
  0.3748126728462113  0.8748489737468896  0.3753114591286235
  0.3744917019103778  0.8748820837156044  0.6250418487420596
  0.3745141073442529  0.8734698112361040  0.8740906477839392
  0.8742516269997237  0.6253654339895621  0.1254109820664956
  0.6241639215849969  0.6250948556673915  0.1243853470456775
  0.6249901695414724  0.8741112312341591  0.1255392256271765
  0.6249573151301093  0.3752345627056461  0.1245398294705254
  0.3754489531965564  0.3758748592321879  0.1250606806265486
  0.3750344555561674  0.6254625331936537  0.1244777886860897
  0.3747153656318043  0.8736408063736534  0.1255009441977821
  0.8726181961948983  0.1257148055456515  0.1247018520767389
  0.6247627912311581  0.1254577628441119  0.1255010730412302
  0.8735143650413846  0.1246179572978168  0.3771857294261018
  0.6250176061174035  0.1241676458149744  0.3746742922618799
  0.3755705644741701  0.1241678059246996  0.3751257931687684
  0.6250160866563410  0.1240987904897208  0.6249220724398952
  0.1263025472908123  0.1242135847269297  0.3766460687194386
  0.1262719628448598  0.3762293739965861  0.1253288530389119
  0.1262112847658611  0.3756196683885145  0.3751624449623866
  0.1245931612082013  0.1223673471429893  0.6236304691017783
  0.1251042640760006  0.3764192750051535  0.6243186160610223
  0.1264285915914689  0.6258438881485541  0.1254892334672604
  0.1254602013046434  0.6263021338520347  0.3743513009878198
  0.1253895630399230  0.6267273500186811  0.6256006190472171
  0.8732131476264764  0.1244514232755329  0.8740819971467536
  0.6256940411250911  0.1251306597445460  0.8747245849871363
  0.3756780663447551  0.1241877377841860  0.8751144600098639
  0.1253862263992434  0.1238204118883463  0.8754943194294894
  0.1257437158005660  0.3767444530127852  0.8758449080173213
  0.1259269696519183  0.6263558358007735  0.8743679990357593
  0.1266815442443320  0.8729627188213763  0.1253418869374208
  0.1260699800104748  0.8738285775124671  0.3765603599486947
  0.1253290085112453  0.8740558037658848  0.6246757161194900
  0.1260549119318741  0.8735904770813855  0.8733607431907275
  0.0010216716255190 -0.0005843533543899  0.7495577443643900
  0.0011098356551721  0.7493540320253937  0.7488077761544507
  0.0015756282025926  0.7484397395165425 -0.0003324186523123
  0.7480494141164488  0.7485267830021657 -0.0003135656431412
  0.7483355654263679 -0.0008103244325454  0.7494772233131576
  0.7483060589364309  0.0008868905597120 -0.0003536968902369
  0.0007749248498769 -0.0013405999273527  0.4996750229797062
  0.0008401781340978  0.7498953231938368  0.5002988595231335
  0.7501110832573903 -0.0003856694286386  0.5002324893757406
  0.0002138263539141  0.5004884789270686  0.7497727633598611
  0.7501655555293463  0.5013244271046312 -0.0000077524017794
  0.4997616845352461  0.5020677729192372  0.0015076155866133
  0.4992395013793203  0.7499811091190731 -0.0001961020452807
  0.4997097976676801 -0.0008330697281924  0.5000912020613083
  0.5003442566488442 -0.0022239543801079  0.7505866403819639
  0.0013082485258207  0.7495176599840740  0.2511122484705622
  0.7497693357257329  0.0008671957325263  0.2504231628436621
  0.0010771798375118  0.5009763405951021  0.2506842150232657
  0.4999565720810293 -0.0006272714579436  0.2497993275645402
  0.0002179198168446  0.2509626885995952  0.4999084538541240
 -0.0003081967936107  0.2508171845010662 -0.0012202573272919
  0.7496495680633211  0.2490099217309396  0.0003081482330251
  0.5011549213116290  0.2490703255083792  0.0013071150595379
  0.2500455969768706  0.2512287897051413 -0.0004300396223594
  0.2494108080319701  0.5017670705639841  0.0010790254361179
  0.2504913995619464  0.7496385039088658 -0.0000388987864603
  0.2503676220551525 -0.0021876290946199  0.2518404527527436
  0.2493122980472595 -0.0018760691072639  0.4997191822405214
  0.2496519138883171 -0.0020068520715965  0.7499062683683608
  0.2507607059895116 -0.0020834053198326 -0.0013761779783226
 
  0.00000000E+00  0.00000000E+00  0.00000000E+00
  0.00000000E+00  0.00000000E+00  0.00000000E+00
  0.00000000E+00  0.00000000E+00  0.00000000E+00
  0.00000000E+00  0.00000000E+00  0.00000000E+00
  0.00000000E+00  0.00000000E+00  0.00000000E+00
  0.00000000E+00  0.00000000E+00  0.00000000E+00
  0.00000000E+00  0.00000000E+00  0.00000000E+00
  0.00000000E+00  0.00000000E+00  0.00000000E+00
  0.00000000E+00  0.00000000E+00  0.00000000E+00
  0.00000000E+00  0.00000000E+00  0.00000000E+00
  0.00000000E+00  0.00000000E+00  0.00000000E+00
  0.00000000E+00  0.00000000E+00  0.00000000E+00
  0.00000000E+00  0.00000000E+00  0.00000000E+00
  0.00000000E+00  0.00000000E+00  0.00000000E+00
  0.00000000E+00  0.00000000E+00  0.00000000E+00
  0.00000000E+00  0.00000000E+00  0.00000000E+00
  0.00000000E+00  0.00000000E+00  0.00000000E+00
  0.00000000E+00  0.00000000E+00  0.00000000E+00
  0.00000000E+00  0.00000000E+00  0.00000000E+00
  0.00000000E+00  0.00000000E+00  0.00000000E+00
  0.00000000E+00  0.00000000E+00  0.00000000E+00
  0.00000000E+00  0.00000000E+00  0.00000000E+00
  0.00000000E+00  0.00000000E+00  0.00000000E+00
  0.00000000E+00  0.00000000E+00  0.00000000E+00
  0.00000000E+00  0.00000000E+00  0.00000000E+00
  0.00000000E+00  0.00000000E+00  0.00000000E+00
  0.00000000E+00  0.00000000E+00  0.00000000E+00
  0.00000000E+00  0.00000000E+00  0.00000000E+00
  0.00000000E+00  0.00000000E+00  0.00000000E+00
  0.00000000E+00  0.00000000E+00  0.00000000E+00
  0.00000000E+00  0.00000000E+00  0.00000000E+00
  0.00000000E+00  0.00000000E+00  0.00000000E+00
  0.00000000E+00  0.00000000E+00  0.00000000E+00
  0.00000000E+00  0.00000000E+00  0.00000000E+00
  0.00000000E+00  0.00000000E+00  0.00000000E+00
  0.00000000E+00  0.00000000E+00  0.00000000E+00
  0.00000000E+00  0.00000000E+00  0.00000000E+00
  0.00000000E+00  0.00000000E+00  0.00000000E+00
  0.00000000E+00  0.00000000E+00  0.00000000E+00
  0.00000000E+00  0.00000000E+00  0.00000000E+00
  0.00000000E+00  0.00000000E+00  0.00000000E+00
  0.00000000E+00  0.00000000E+00  0.00000000E+00
  0.00000000E+00  0.00000000E+00  0.00000000E+00
  0.00000000E+00  0.00000000E+00  0.00000000E+00
  0.00000000E+00  0.00000000E+00  0.00000000E+00
  0.00000000E+00  0.00000000E+00  0.00000000E+00
  0.00000000E+00  0.00000000E+00  0.00000000E+00
  0.00000000E+00  0.00000000E+00  0.00000000E+00
  0.00000000E+00  0.00000000E+00  0.00000000E+00
  0.00000000E+00  0.00000000E+00  0.00000000E+00
  0.00000000E+00  0.00000000E+00  0.00000000E+00
  0.00000000E+00  0.00000000E+00  0.00000000E+00
  0.00000000E+00  0.00000000E+00  0.00000000E+00
  0.00000000E+00  0.00000000E+00  0.00000000E+00
  0.00000000E+00  0.00000000E+00  0.00000000E+00
  0.00000000E+00  0.00000000E+00  0.00000000E+00
  0.00000000E+00  0.00000000E+00  0.00000000E+00
  0.00000000E+00  0.00000000E+00  0.00000000E+00
  0.00000000E+00  0.00000000E+00  0.00000000E+00
  0.00000000E+00  0.00000000E+00  0.00000000E+00
  0.00000000E+00  0.00000000E+00  0.00000000E+00
  0.00000000E+00  0.00000000E+00  0.00000000E+00
  0.00000000E+00  0.00000000E+00  0.00000000E+00
  0.00000000E+00  0.00000000E+00  0.00000000E+00
  0.00000000E+00  0.00000000E+00  0.00000000E+00
  0.00000000E+00  0.00000000E+00  0.00000000E+00
  0.00000000E+00  0.00000000E+00  0.00000000E+00
  0.00000000E+00  0.00000000E+00  0.00000000E+00
  0.00000000E+00  0.00000000E+00  0.00000000E+00
  0.00000000E+00  0.00000000E+00  0.00000000E+00
  0.00000000E+00  0.00000000E+00  0.00000000E+00
  0.00000000E+00  0.00000000E+00  0.00000000E+00
  0.00000000E+00  0.00000000E+00  0.00000000E+00
  0.00000000E+00  0.00000000E+00  0.00000000E+00
  0.00000000E+00  0.00000000E+00  0.00000000E+00
  0.00000000E+00  0.00000000E+00  0.00000000E+00
  0.00000000E+00  0.00000000E+00  0.00000000E+00
  0.00000000E+00  0.00000000E+00  0.00000000E+00
  0.00000000E+00  0.00000000E+00  0.00000000E+00
  0.00000000E+00  0.00000000E+00  0.00000000E+00
  0.00000000E+00  0.00000000E+00  0.00000000E+00
  0.00000000E+00  0.00000000E+00  0.00000000E+00
  0.00000000E+00  0.00000000E+00  0.00000000E+00
  0.00000000E+00  0.00000000E+00  0.00000000E+00
  0.00000000E+00  0.00000000E+00  0.00000000E+00
  0.00000000E+00  0.00000000E+00  0.00000000E+00
  0.00000000E+00  0.00000000E+00  0.00000000E+00
  0.00000000E+00  0.00000000E+00  0.00000000E+00
  0.00000000E+00  0.00000000E+00  0.00000000E+00
  0.00000000E+00  0.00000000E+00  0.00000000E+00
  0.00000000E+00  0.00000000E+00  0.00000000E+00
  0.00000000E+00  0.00000000E+00  0.00000000E+00
  0.00000000E+00  0.00000000E+00  0.00000000E+00
  0.00000000E+00  0.00000000E+00  0.00000000E+00
  0.00000000E+00  0.00000000E+00  0.00000000E+00
  0.00000000E+00  0.00000000E+00  0.00000000E+00
  0.00000000E+00  0.00000000E+00  0.00000000E+00
  0.00000000E+00  0.00000000E+00  0.00000000E+00
  0.00000000E+00  0.00000000E+00  0.00000000E+00
  0.00000000E+00  0.00000000E+00  0.00000000E+00
  0.00000000E+00  0.00000000E+00  0.00000000E+00
  0.00000000E+00  0.00000000E+00  0.00000000E+00
  0.00000000E+00  0.00000000E+00  0.00000000E+00
  0.00000000E+00  0.00000000E+00  0.00000000E+00
  0.00000000E+00  0.00000000E+00  0.00000000E+00
  0.00000000E+00  0.00000000E+00  0.00000000E+00
  0.00000000E+00  0.00000000E+00  0.00000000E+00
  0.00000000E+00  0.00000000E+00  0.00000000E+00
  0.00000000E+00  0.00000000E+00  0.00000000E+00
  0.00000000E+00  0.00000000E+00  0.00000000E+00
  0.00000000E+00  0.00000000E+00  0.00000000E+00
  0.00000000E+00  0.00000000E+00  0.00000000E+00
  0.00000000E+00  0.00000000E+00  0.00000000E+00
  0.00000000E+00  0.00000000E+00  0.00000000E+00
  0.00000000E+00  0.00000000E+00  0.00000000E+00
  0.00000000E+00  0.00000000E+00  0.00000000E+00
  0.00000000E+00  0.00000000E+00  0.00000000E+00
  0.00000000E+00  0.00000000E+00  0.00000000E+00
  0.00000000E+00  0.00000000E+00  0.00000000E+00
  0.00000000E+00  0.00000000E+00  0.00000000E+00
  0.00000000E+00  0.00000000E+00  0.00000000E+00
  0.00000000E+00  0.00000000E+00  0.00000000E+00
  0.00000000E+00  0.00000000E+00  0.00000000E+00
  0.00000000E+00  0.00000000E+00  0.00000000E+00
  0.00000000E+00  0.00000000E+00  0.00000000E+00
  0.00000000E+00  0.00000000E+00  0.00000000E+00
  0.00000000E+00  0.00000000E+00  0.00000000E+00
  0.00000000E+00  0.00000000E+00  0.00000000E+00
