#generated using str2pos                
    1.000000000000000     
    13.0464510156054736    0.0168479693645154   -0.0039937525227904
     0.0168505889995685   13.0518122906887815    0.0067396226161362
    -0.0039914661415491    0.0067386815243232   13.0524223046995029
   Ta   W 
    90    38
Direct
  0.2485996991865917  0.2525102364126476  0.2490423929730279
  0.1280900067425902  0.1225005039579231  0.1238428940271801
  0.5007984022681592  0.2479282917487759  0.2486008977785386
  0.3740843659895438  0.1246207094118963  0.1250317073740450
  0.7487739136060966  0.2461087576120294  0.2462591233938425
 -0.0005414832151572  0.2490574239169460  0.2447293449175570
  0.2486800646512494  0.4992828127751783  0.2473359813747543
  0.3792251682936599  0.3735282928418185  0.1217727723274727
  0.7476231158648033  0.5011628422313822  0.2526226868730071
  0.6221174957658336  0.3786577826819422  0.1234860382844463
  0.0009506542687499  0.4987972133602978  0.2486977110925948
  0.8703749840978974  0.3784903436204621  0.1219603731586659
  0.2520554694825446  0.7466851832666536  0.2468900971508168
  0.1228348956422139  0.6273320157529512  0.1239690977948231
  0.4998191045311078  0.7482605007404083  0.2532550001339435
  0.6243582987034944  0.6243199008094836  0.1232980149177939
 -0.0019400113387753  0.7528220586285086  0.2477456156123728
  0.8705440006585833  0.6253015548505486  0.1255698467420185
  0.1258121618950751  0.8785535035968618  0.1249121911588442
  0.3771699310878784  0.8767327593758434  0.1261993168664933
  0.7504538911942777  0.0003638566336258  0.2461162637269339
  0.6224834548474778  0.8721091073047097  0.1252949734878485
 -0.0046827045174815 -0.0001431921865476  0.2451781624859444
  0.2522355267523519  0.2507754756228716  0.5033087584190626
  0.1243887774247422  0.1212814732538459  0.3768468069417009
  0.4984726949890808  0.2446765053141849  0.5032154068202559
  0.3728522412919834  0.1195379219894402  0.3720391596409566
  0.7454157040555989  0.2470182206890708  0.5012909617204993
  0.6225440001930229  0.1229839347098106  0.3724636536772890
  0.8774215296080646  0.1240933507689504  0.3783482196109249
  0.2474470542904754  0.4963114806497321  0.5011255066803149
  0.1227206187723604  0.3720701559147858  0.3768366751453687
  0.3782048014363099  0.3771476144213954  0.3748596015652216
  0.7490976047023219  0.5053129194963489  0.5017023925146906
  0.6214538567952314  0.3762404446554786  0.3749803807093939
 -0.0010247463642327  0.5018022365238387  0.5041896819484601
  0.8745859357512438  0.3724494048760302  0.3764544139661092
  0.1257189579745229  0.6274969906059078  0.3776776500514801
  0.5059086871976913  0.7508103693626248  0.5001121669723135
  0.3755401632356342  0.6236637545892174  0.3783893539510325
  0.7462963783490572  0.7498354962898091  0.5025094158917253
 -0.0042431676608030  0.7475351150252956  0.5023427847843331
  0.8725494746254765  0.6279315647871475  0.3717089259836870
  0.1265603350133929  0.8773380656600873  0.3770648903795058
  0.5023739734374189 -0.0017417574605656  0.5039724763119326
  0.3714542485248651  0.8763067652529895  0.3758337786121098
  0.7438797002231617 -0.0026368210418807  0.5002202247598543
  0.8744409057596337  0.8756136589392819  0.3756335340787408
  0.2521843057395804  0.2464651813784569  0.7495175889138095
  0.1226973969508867  0.1221967458350972  0.6206358574835029
  0.4996774841927262  0.2470238360518922  0.7498509793753314
  0.7468805176034728  0.2506626834938054  0.7506043099981629
  0.0049380210931142  0.2498501457717434  0.7519404060303728
  0.8776617409452855  0.1231958912911158  0.6244655330487634
  0.5044763540808447  0.5002864019936034  0.7512125363178570
  0.3769676175942736  0.3791893221527373  0.6266774087840646
  0.7501334667647752  0.5038763180615493  0.7490685778519236
  0.6230568920177600  0.3765385048957680  0.6231944810240609
 -0.0021995918823376  0.5023515428019348  0.7490504152765894
  0.8749259820782768  0.3715885384864542  0.6243398176472803
  0.1302427961753362  0.6283640587982583  0.6280460361258462
  0.5063403425699661  0.7520955362945811  0.7480544970512387
  0.3727124905524062  0.6256135508173497  0.6263547149038075
  0.7507200457609678  0.7505743420257790  0.7504691417558975
 -0.0032244824717513  0.7513630729851117  0.7528258178278869
  0.2507764838872388  0.0037140683782605  0.7537100209882203
  0.1272441104517152  0.8752830322542878  0.6221176682949963
  0.5009581216093202  0.0005456757807558  0.7487909617833128
  0.3704804086026025  0.8719305248153880  0.6241851260846812
  0.0035513294479343 -0.0013784033412601  0.7546237717055985
  0.8764552896666190  0.8801663391749016  0.6247989129062766
  0.7493010638399255  0.2476995518142004  0.0008345062689803
  0.6272076226717656  0.1251582240152947  0.8748726473655185
  0.0013626859471409  0.2488529298088224  0.0005287997613406
  0.8745975893374167  0.1238115772093623  0.8730132998305036
  0.2500889962150645  0.5008259152083732  0.0044985162308836
  0.1297552291160035  0.3763772028137386  0.8746690077734822
  0.3758974484301807  0.3759920395983178  0.8776057577722859
  0.0011034887181917  0.5010161783532326 -0.0010607324604861
  0.8739956142076268  0.3756768340804681  0.8761702211886991
  0.2495602832287287  0.7506933674019808  0.0017446638201012
  0.1295312307938569  0.6245448535954389  0.8716105282124331
  0.3768415638678282  0.6250765675132210  0.8751507075298536
  0.7526295354795192  0.7542149681442646 -0.0035543067450658
  0.6230550855623469  0.6242207004840794  0.8806344881382320
 -0.0024997372749466  0.7533991110900223 -0.0034575246804089
  0.2501749429956965  0.0004367554481084 -0.0057915689660357
  0.5018878800655679  0.0007477410112880 -0.0032301355525463
  0.3769545931975802  0.8709364818188813  0.8747816432579567
  0.7512149194752030 -0.0013235981118481  0.0009544650984031
  0.6215580555246192  0.1244883474181109  0.1232552697684845
  0.8766435261263292  0.1239808190790325  0.1219117401408112
  0.1265818212452669  0.3731560658971363  0.1229547994334607
  0.4990193774976567  0.5024432979243605  0.2502262497814380
  0.3790168140625418  0.6237497145912935  0.1246216807606372
  0.7470437282310423  0.7525160576955034  0.2508141143107246
  0.2491236264428710 -0.0003142114942131  0.2483038638847093
  0.5026085758327083 -0.0019104325622688  0.2496449711836898
  0.8737166350026433  0.8749602389999175  0.1241725915813641
  0.0011803031443144  0.2510428587037497  0.5011162731398131
  0.5017087448945328  0.5029214915472969  0.5013434562630698
  0.2505667946553950  0.7494030162155485  0.4996839857677203
  0.6230075392613551  0.6237965846862931  0.3731039047358286
  0.2521733241681560  0.0015334767202306  0.5021527765126713
  0.6241103918921800  0.8743037764530998  0.3718525612014759
 -0.0010759487054338 -0.0013806083618987  0.4998773530948175
  0.3733584275157897  0.1226493991866433  0.6241731208874326
  0.6266101162033881  0.1238451729416554  0.6271028454231747
  0.2506921360143980  0.4980804378532934  0.7506045067987762
  0.1256277442669959  0.3747457221474851  0.6266579147052564
  0.2502447692472464  0.7528260325016222  0.7527167594254485
  0.6234010868819960  0.6244960402625993  0.6254529519913624
  0.8750628929174683  0.6266938114960263  0.6254671627627153
  0.7488621244798498 -0.0023954311580467  0.7505507562917484
  0.6265400881025481  0.8757606556890697  0.6266596087092113
  0.2502378174956175  0.2486716208827639 -0.0018648370408151
  0.1257355090768097  0.1259248766072813  0.8767334752707786
  0.5018681239428562  0.2483541724943763 -0.0017807162039873
  0.3772413608623136  0.1273332131380368  0.8776631372096315
  0.4993182892862625  0.4996686517408868 -0.0001451981385172
  0.7493975408871805  0.5009340972271465 -0.0026481254322036
  0.6235616600932681  0.3757038917955599  0.8782397915588963
  0.5004234057296874  0.7502179371258515  0.0006829843489895
  0.8732960796473405  0.6248959607563647  0.8769490529029540
  0.1263796653210538  0.8747222372564657  0.8744762181111185
  0.6258784948299608  0.8753409005591611  0.8755391449643345
 -0.0007582889516124 -0.0003572880856259 -0.0018662377475539
  0.8757403514826616  0.8785062823333245  0.8741532018269856
 
  0.00000000E+00  0.00000000E+00  0.00000000E+00
  0.00000000E+00  0.00000000E+00  0.00000000E+00
  0.00000000E+00  0.00000000E+00  0.00000000E+00
  0.00000000E+00  0.00000000E+00  0.00000000E+00
  0.00000000E+00  0.00000000E+00  0.00000000E+00
  0.00000000E+00  0.00000000E+00  0.00000000E+00
  0.00000000E+00  0.00000000E+00  0.00000000E+00
  0.00000000E+00  0.00000000E+00  0.00000000E+00
  0.00000000E+00  0.00000000E+00  0.00000000E+00
  0.00000000E+00  0.00000000E+00  0.00000000E+00
  0.00000000E+00  0.00000000E+00  0.00000000E+00
  0.00000000E+00  0.00000000E+00  0.00000000E+00
  0.00000000E+00  0.00000000E+00  0.00000000E+00
  0.00000000E+00  0.00000000E+00  0.00000000E+00
  0.00000000E+00  0.00000000E+00  0.00000000E+00
  0.00000000E+00  0.00000000E+00  0.00000000E+00
  0.00000000E+00  0.00000000E+00  0.00000000E+00
  0.00000000E+00  0.00000000E+00  0.00000000E+00
  0.00000000E+00  0.00000000E+00  0.00000000E+00
  0.00000000E+00  0.00000000E+00  0.00000000E+00
  0.00000000E+00  0.00000000E+00  0.00000000E+00
  0.00000000E+00  0.00000000E+00  0.00000000E+00
  0.00000000E+00  0.00000000E+00  0.00000000E+00
  0.00000000E+00  0.00000000E+00  0.00000000E+00
  0.00000000E+00  0.00000000E+00  0.00000000E+00
  0.00000000E+00  0.00000000E+00  0.00000000E+00
  0.00000000E+00  0.00000000E+00  0.00000000E+00
  0.00000000E+00  0.00000000E+00  0.00000000E+00
  0.00000000E+00  0.00000000E+00  0.00000000E+00
  0.00000000E+00  0.00000000E+00  0.00000000E+00
  0.00000000E+00  0.00000000E+00  0.00000000E+00
  0.00000000E+00  0.00000000E+00  0.00000000E+00
  0.00000000E+00  0.00000000E+00  0.00000000E+00
  0.00000000E+00  0.00000000E+00  0.00000000E+00
  0.00000000E+00  0.00000000E+00  0.00000000E+00
  0.00000000E+00  0.00000000E+00  0.00000000E+00
  0.00000000E+00  0.00000000E+00  0.00000000E+00
  0.00000000E+00  0.00000000E+00  0.00000000E+00
  0.00000000E+00  0.00000000E+00  0.00000000E+00
  0.00000000E+00  0.00000000E+00  0.00000000E+00
  0.00000000E+00  0.00000000E+00  0.00000000E+00
  0.00000000E+00  0.00000000E+00  0.00000000E+00
  0.00000000E+00  0.00000000E+00  0.00000000E+00
  0.00000000E+00  0.00000000E+00  0.00000000E+00
  0.00000000E+00  0.00000000E+00  0.00000000E+00
  0.00000000E+00  0.00000000E+00  0.00000000E+00
  0.00000000E+00  0.00000000E+00  0.00000000E+00
  0.00000000E+00  0.00000000E+00  0.00000000E+00
  0.00000000E+00  0.00000000E+00  0.00000000E+00
  0.00000000E+00  0.00000000E+00  0.00000000E+00
  0.00000000E+00  0.00000000E+00  0.00000000E+00
  0.00000000E+00  0.00000000E+00  0.00000000E+00
  0.00000000E+00  0.00000000E+00  0.00000000E+00
  0.00000000E+00  0.00000000E+00  0.00000000E+00
  0.00000000E+00  0.00000000E+00  0.00000000E+00
  0.00000000E+00  0.00000000E+00  0.00000000E+00
  0.00000000E+00  0.00000000E+00  0.00000000E+00
  0.00000000E+00  0.00000000E+00  0.00000000E+00
  0.00000000E+00  0.00000000E+00  0.00000000E+00
  0.00000000E+00  0.00000000E+00  0.00000000E+00
  0.00000000E+00  0.00000000E+00  0.00000000E+00
  0.00000000E+00  0.00000000E+00  0.00000000E+00
  0.00000000E+00  0.00000000E+00  0.00000000E+00
  0.00000000E+00  0.00000000E+00  0.00000000E+00
  0.00000000E+00  0.00000000E+00  0.00000000E+00
  0.00000000E+00  0.00000000E+00  0.00000000E+00
  0.00000000E+00  0.00000000E+00  0.00000000E+00
  0.00000000E+00  0.00000000E+00  0.00000000E+00
  0.00000000E+00  0.00000000E+00  0.00000000E+00
  0.00000000E+00  0.00000000E+00  0.00000000E+00
  0.00000000E+00  0.00000000E+00  0.00000000E+00
  0.00000000E+00  0.00000000E+00  0.00000000E+00
  0.00000000E+00  0.00000000E+00  0.00000000E+00
  0.00000000E+00  0.00000000E+00  0.00000000E+00
  0.00000000E+00  0.00000000E+00  0.00000000E+00
  0.00000000E+00  0.00000000E+00  0.00000000E+00
  0.00000000E+00  0.00000000E+00  0.00000000E+00
  0.00000000E+00  0.00000000E+00  0.00000000E+00
  0.00000000E+00  0.00000000E+00  0.00000000E+00
  0.00000000E+00  0.00000000E+00  0.00000000E+00
  0.00000000E+00  0.00000000E+00  0.00000000E+00
  0.00000000E+00  0.00000000E+00  0.00000000E+00
  0.00000000E+00  0.00000000E+00  0.00000000E+00
  0.00000000E+00  0.00000000E+00  0.00000000E+00
  0.00000000E+00  0.00000000E+00  0.00000000E+00
  0.00000000E+00  0.00000000E+00  0.00000000E+00
  0.00000000E+00  0.00000000E+00  0.00000000E+00
  0.00000000E+00  0.00000000E+00  0.00000000E+00
  0.00000000E+00  0.00000000E+00  0.00000000E+00
  0.00000000E+00  0.00000000E+00  0.00000000E+00
  0.00000000E+00  0.00000000E+00  0.00000000E+00
  0.00000000E+00  0.00000000E+00  0.00000000E+00
  0.00000000E+00  0.00000000E+00  0.00000000E+00
  0.00000000E+00  0.00000000E+00  0.00000000E+00
  0.00000000E+00  0.00000000E+00  0.00000000E+00
  0.00000000E+00  0.00000000E+00  0.00000000E+00
  0.00000000E+00  0.00000000E+00  0.00000000E+00
  0.00000000E+00  0.00000000E+00  0.00000000E+00
  0.00000000E+00  0.00000000E+00  0.00000000E+00
  0.00000000E+00  0.00000000E+00  0.00000000E+00
  0.00000000E+00  0.00000000E+00  0.00000000E+00
  0.00000000E+00  0.00000000E+00  0.00000000E+00
  0.00000000E+00  0.00000000E+00  0.00000000E+00
  0.00000000E+00  0.00000000E+00  0.00000000E+00
  0.00000000E+00  0.00000000E+00  0.00000000E+00
  0.00000000E+00  0.00000000E+00  0.00000000E+00
  0.00000000E+00  0.00000000E+00  0.00000000E+00
  0.00000000E+00  0.00000000E+00  0.00000000E+00
  0.00000000E+00  0.00000000E+00  0.00000000E+00
  0.00000000E+00  0.00000000E+00  0.00000000E+00
  0.00000000E+00  0.00000000E+00  0.00000000E+00
  0.00000000E+00  0.00000000E+00  0.00000000E+00
  0.00000000E+00  0.00000000E+00  0.00000000E+00
  0.00000000E+00  0.00000000E+00  0.00000000E+00
  0.00000000E+00  0.00000000E+00  0.00000000E+00
  0.00000000E+00  0.00000000E+00  0.00000000E+00
  0.00000000E+00  0.00000000E+00  0.00000000E+00
  0.00000000E+00  0.00000000E+00  0.00000000E+00
  0.00000000E+00  0.00000000E+00  0.00000000E+00
  0.00000000E+00  0.00000000E+00  0.00000000E+00
  0.00000000E+00  0.00000000E+00  0.00000000E+00
  0.00000000E+00  0.00000000E+00  0.00000000E+00
  0.00000000E+00  0.00000000E+00  0.00000000E+00
  0.00000000E+00  0.00000000E+00  0.00000000E+00
  0.00000000E+00  0.00000000E+00  0.00000000E+00
  0.00000000E+00  0.00000000E+00  0.00000000E+00
  0.00000000E+00  0.00000000E+00  0.00000000E+00
  0.00000000E+00  0.00000000E+00  0.00000000E+00
