#generated using str2pos                
    1.000000000000000     
    12.9034731708553547    0.0065818719121716    0.0142837108416452
     0.0065781450638162   12.9106524893332679   -0.0072701057363604
     0.0142883213014862   -0.0072761188115739   12.9047911926050940
   Ta   W 
    58    70
Direct
  0.3768705313778768  0.1248407875379065  0.1274528527632399
  0.6253715858817340  0.1250285511771934  0.1255725443259163
  0.8742822880975389  0.1252719910219152  0.1258657402852831
  0.2502404915582382  0.5002805911427958  0.2502207210387042
  0.4981902635119876  0.5000114142155444  0.2526636551437377
  0.7510245015220858  0.5009530207159535  0.2525671499603480
  0.6252800696873940  0.3734303209642579  0.1233891485070864
  0.0013477559466574  0.5003164332385628  0.2490190347767330
  0.2489021847929444  0.7468184349523431  0.2484038329355724
  0.6258794645501040  0.6271317597529457  0.1230121882862547
  0.3789103418552217  0.8767632037642201  0.1259277061698348
  0.6255495782918872  0.8753769328105299  0.1257805636112721
  0.8729598639651737  0.8754183456406408  0.1269206255541815
  0.1249789735094821  0.1250123249299043  0.3746717236092057
  0.4991033588901861  0.2523424446426121  0.5024157615132381
  0.3739344772331221  0.1240386117613898  0.3730484300293753
  0.6253543656507798  0.1234587138122306  0.3734858542545275
  0.8747615129083133  0.1243729057066822  0.3748426225344111
  0.2498035300051368  0.4999933359205426  0.5001800301801909
  0.4992528064037336  0.4995417460722955  0.5000553688264942
  0.7479633600920849  0.5013418929670347  0.4999585260118763
  0.0016494254676207  0.5024868151728874  0.5002001670277192
  0.8759273857323298  0.3705508668510420  0.3758215042683661
  0.2494650226441499  0.7476240083150399  0.5012872638534425
  0.4983798027664223  0.7467654128793560  0.5009618349585819
 -0.0000048036708199  0.7478953672587301  0.5019466928865811
  0.1233359602206365  0.8788903393180426  0.3737651342939625
  0.3758239986705880  0.8790579070804269  0.3728916845734020
  0.6260556196398899  0.8767239746082424  0.3733852768018421
  0.8739917528827285  0.8766594429760078  0.3733674803727237
  0.2510764694575735  0.2507566940384623  0.7512096812168539
  0.1221862153591730  0.1249185285548904  0.6221906465341595
  0.4969182651328444  0.2501134664377802  0.7479306443275116
  0.8764047273558291  0.1259875415871095  0.6240356716730405
  0.2500404877663531  0.4998650736279357  0.7501632444509060
  0.4976792945382746  0.4995410853199150  0.7486974519487088
  0.0023284988532521  0.5020544006501014  0.7508246758833834
  0.8740567236197222  0.3713595289910421  0.6267212559347493
  0.2494358405823098  0.7499826287591624  0.7501683566307582
  0.4985182773470409  0.7498380148545762  0.7493435829574597
  0.7523782818952538  0.7504922078001276  0.7501598794296871
 -0.0000404289353295  0.7494593889762450  0.7498256660181498
  0.2509393819637981 -0.0006936803564005  0.7506419768515602
  0.4980212564350912  0.0003884167740864  0.7501860339206439
  0.7495838835318427 -0.0030248030275946  0.7497376692545040
  0.6257007327534603  0.8757944047704627  0.6209612109487956
  0.2490602137197641  0.2511374119200423 -0.0011555902951530
  0.6267384033872561  0.1264207186147296  0.8783972161958828
  0.8743795739561278  0.1272772061747220  0.8750658736082590
  0.2494432484198776  0.4994891676185012  0.0002758929856506
  0.6275999043165997  0.3752450895800019  0.8779944759267682
  0.0020125735130159  0.5010756404721439  0.0013160440391757
  0.8729631124999765  0.3728336232812292  0.8752329727436631
  0.2491663696941180  0.7489367494591243 -0.0011630170081868
  0.6259574854096135  0.6234626490886817  0.8788730397073446
  0.0013647511681677  0.7491756177342581 -0.0017865324546294
  0.2481911722984765  0.0001682722494569 -0.0032206538691801
  0.0033206067413339 -0.0012017952038845 -0.0017108085346885
  0.2487716988398818  0.2530112139609437  0.2486507262314356
  0.1241309329678110  0.1259442126030380  0.1271277905469408
  0.4986775032293511  0.2537792625641571  0.2519668009609551
  0.7504752803627206  0.2526022627651489  0.2506252688334048
  0.0021787864927090  0.2517154031077479  0.2480166085645219
  0.1245936087887300  0.3723006467852316  0.1262661824681688
  0.3768801842091068  0.3727721426647020  0.1257810776291815
  0.8742869554855651  0.3725078466685704  0.1246248544556138
  0.1241349642753825  0.6254193375569748  0.1257612981175894
  0.4992501570366775  0.7464250400794191  0.2511441444606941
  0.3784651393848446  0.6256502773417221  0.1240709867853455
  0.7512326530465461  0.7470724717380104  0.2507336228068550
  0.0011150594131389  0.7473478337375047  0.2489849863867069
  0.8733549162760879  0.6270455601905012  0.1256060554497307
  0.2480336167863790  0.0002945174664893  0.2470463497133179
  0.1242464755070855  0.8763058634251988  0.1271796600721462
  0.5001694073804749  0.0005550191800572  0.2495336442905316
  0.7504990876564690  0.0001147867814615  0.2498505663308644
  0.0017416738026861  0.0005375792329186  0.2470052265928965
  0.2512005402605352  0.2528109016897365  0.5005254143593794
  0.7461453930312283  0.2511476094429411  0.5007210031164915
  0.0018729722053689  0.2516538828734520  0.4992544326903176
  0.1247203898540733  0.3707751389348726  0.3745652883718010
  0.3732201124744923  0.3716028842390465  0.3740493573051284
  0.6257946600950076  0.3720663581499719  0.3742582012049054
  0.1236424181530426  0.6259337399861621  0.3736671859381285
  0.3759556302139320  0.6257596663773539  0.3738150022291101
  0.7508640189940337  0.7471270923200112  0.5009435529388986
  0.6259274277850195  0.6281760513911602  0.3735827575802100
  0.8737453039370712  0.6279573262734939  0.3741213813213872
  0.2499789750124694 -0.0004204990790137  0.5024178514845976
  0.4987869839417404  0.0014739483176381  0.5027914404804876
  0.7498248589222706 -0.0000003223832833  0.5021576333437658
 -0.0003352454380978 -0.0020497133294521  0.5011280108140944
  0.3726358800783408  0.1240717171377755  0.6212128788558515
  0.7474903708983066  0.2495087205603599  0.7486002453987471
  0.6268321674025884  0.1246495016155107  0.6230155906565298
  0.0030924132798142  0.2507957009620358  0.7510596289775292
  0.1233406361605083  0.3712473900122803  0.6237701864358526
  0.3735326931228284  0.3737606725270797  0.6240330151150518
  0.7500141781051838  0.5024006033777157  0.7484661762856665
  0.6276108188406049  0.3741660550909833  0.6269779571178993
  0.1246871805739977  0.6247860523412357  0.6252128373839311
  0.3749382853823794  0.6246860658668444  0.6255668730640114
  0.6267926449206762  0.6248342206296648  0.6260010897030100
  0.8730244688691361  0.6244369630523801  0.6255446955002576
  0.1237181460972844  0.8787341769097390  0.6230566045653734
  0.3746922623468697  0.8771121587406102  0.6222974292966487
  0.0009677960248147 -0.0029116137948182  0.7509377268760500
  0.8747435690194731  0.8773612303248897  0.6223393325720171
  0.1218239088831843  0.1257885607200111  0.8730232504154055
  0.4966931614362197  0.2510411059973935 -0.0007209048848743
  0.3770051452610492  0.1250355919366722  0.8772560142083425
  0.7515063687935638  0.2509827830684396  0.0017207840138501
  0.0034771818086276  0.2510214470380854  0.0011156895139822
  0.1227008911542232  0.3729757609613396  0.8752748409771295
  0.4966237062397673  0.5002441747122085  0.0011123322313681
  0.3771014708792027  0.3753496446669379  0.8776266519029466
  0.7538099420313936  0.5013203918242363  0.0022596937679090
  0.1251979458721551  0.6247147352645848  0.8753413862303641
  0.4988364015131804  0.7501145374175641 -0.0018396669739319
  0.3779815189882024  0.6248902695716102  0.8774527157164340
  0.7526230572587321  0.7498985449954866 -0.0016079728447992
  0.8720841939463267  0.6235566506973984  0.8769093794367261
  0.1242108098203645  0.8760989328076741  0.8732908630522682
  0.4989966846831974 -0.0008089964965502 -0.0032424353327756
  0.3769622753091547  0.8747244137467886  0.8768954723410699
  0.7510540859277270 -0.0022076934304514 -0.0025133345711904
  0.6252521227199488  0.8747966514465001  0.8786940699950366
  0.8743522831010946  0.8761563886917084  0.8758868587448245
 
  0.00000000E+00  0.00000000E+00  0.00000000E+00
  0.00000000E+00  0.00000000E+00  0.00000000E+00
  0.00000000E+00  0.00000000E+00  0.00000000E+00
  0.00000000E+00  0.00000000E+00  0.00000000E+00
  0.00000000E+00  0.00000000E+00  0.00000000E+00
  0.00000000E+00  0.00000000E+00  0.00000000E+00
  0.00000000E+00  0.00000000E+00  0.00000000E+00
  0.00000000E+00  0.00000000E+00  0.00000000E+00
  0.00000000E+00  0.00000000E+00  0.00000000E+00
  0.00000000E+00  0.00000000E+00  0.00000000E+00
  0.00000000E+00  0.00000000E+00  0.00000000E+00
  0.00000000E+00  0.00000000E+00  0.00000000E+00
  0.00000000E+00  0.00000000E+00  0.00000000E+00
  0.00000000E+00  0.00000000E+00  0.00000000E+00
  0.00000000E+00  0.00000000E+00  0.00000000E+00
  0.00000000E+00  0.00000000E+00  0.00000000E+00
  0.00000000E+00  0.00000000E+00  0.00000000E+00
  0.00000000E+00  0.00000000E+00  0.00000000E+00
  0.00000000E+00  0.00000000E+00  0.00000000E+00
  0.00000000E+00  0.00000000E+00  0.00000000E+00
  0.00000000E+00  0.00000000E+00  0.00000000E+00
  0.00000000E+00  0.00000000E+00  0.00000000E+00
  0.00000000E+00  0.00000000E+00  0.00000000E+00
  0.00000000E+00  0.00000000E+00  0.00000000E+00
  0.00000000E+00  0.00000000E+00  0.00000000E+00
  0.00000000E+00  0.00000000E+00  0.00000000E+00
  0.00000000E+00  0.00000000E+00  0.00000000E+00
  0.00000000E+00  0.00000000E+00  0.00000000E+00
  0.00000000E+00  0.00000000E+00  0.00000000E+00
  0.00000000E+00  0.00000000E+00  0.00000000E+00
  0.00000000E+00  0.00000000E+00  0.00000000E+00
  0.00000000E+00  0.00000000E+00  0.00000000E+00
  0.00000000E+00  0.00000000E+00  0.00000000E+00
  0.00000000E+00  0.00000000E+00  0.00000000E+00
  0.00000000E+00  0.00000000E+00  0.00000000E+00
  0.00000000E+00  0.00000000E+00  0.00000000E+00
  0.00000000E+00  0.00000000E+00  0.00000000E+00
  0.00000000E+00  0.00000000E+00  0.00000000E+00
  0.00000000E+00  0.00000000E+00  0.00000000E+00
  0.00000000E+00  0.00000000E+00  0.00000000E+00
  0.00000000E+00  0.00000000E+00  0.00000000E+00
  0.00000000E+00  0.00000000E+00  0.00000000E+00
  0.00000000E+00  0.00000000E+00  0.00000000E+00
  0.00000000E+00  0.00000000E+00  0.00000000E+00
  0.00000000E+00  0.00000000E+00  0.00000000E+00
  0.00000000E+00  0.00000000E+00  0.00000000E+00
  0.00000000E+00  0.00000000E+00  0.00000000E+00
  0.00000000E+00  0.00000000E+00  0.00000000E+00
  0.00000000E+00  0.00000000E+00  0.00000000E+00
  0.00000000E+00  0.00000000E+00  0.00000000E+00
  0.00000000E+00  0.00000000E+00  0.00000000E+00
  0.00000000E+00  0.00000000E+00  0.00000000E+00
  0.00000000E+00  0.00000000E+00  0.00000000E+00
  0.00000000E+00  0.00000000E+00  0.00000000E+00
  0.00000000E+00  0.00000000E+00  0.00000000E+00
  0.00000000E+00  0.00000000E+00  0.00000000E+00
  0.00000000E+00  0.00000000E+00  0.00000000E+00
  0.00000000E+00  0.00000000E+00  0.00000000E+00
  0.00000000E+00  0.00000000E+00  0.00000000E+00
  0.00000000E+00  0.00000000E+00  0.00000000E+00
  0.00000000E+00  0.00000000E+00  0.00000000E+00
  0.00000000E+00  0.00000000E+00  0.00000000E+00
  0.00000000E+00  0.00000000E+00  0.00000000E+00
  0.00000000E+00  0.00000000E+00  0.00000000E+00
  0.00000000E+00  0.00000000E+00  0.00000000E+00
  0.00000000E+00  0.00000000E+00  0.00000000E+00
  0.00000000E+00  0.00000000E+00  0.00000000E+00
  0.00000000E+00  0.00000000E+00  0.00000000E+00
  0.00000000E+00  0.00000000E+00  0.00000000E+00
  0.00000000E+00  0.00000000E+00  0.00000000E+00
  0.00000000E+00  0.00000000E+00  0.00000000E+00
  0.00000000E+00  0.00000000E+00  0.00000000E+00
  0.00000000E+00  0.00000000E+00  0.00000000E+00
  0.00000000E+00  0.00000000E+00  0.00000000E+00
  0.00000000E+00  0.00000000E+00  0.00000000E+00
  0.00000000E+00  0.00000000E+00  0.00000000E+00
  0.00000000E+00  0.00000000E+00  0.00000000E+00
  0.00000000E+00  0.00000000E+00  0.00000000E+00
  0.00000000E+00  0.00000000E+00  0.00000000E+00
  0.00000000E+00  0.00000000E+00  0.00000000E+00
  0.00000000E+00  0.00000000E+00  0.00000000E+00
  0.00000000E+00  0.00000000E+00  0.00000000E+00
  0.00000000E+00  0.00000000E+00  0.00000000E+00
  0.00000000E+00  0.00000000E+00  0.00000000E+00
  0.00000000E+00  0.00000000E+00  0.00000000E+00
  0.00000000E+00  0.00000000E+00  0.00000000E+00
  0.00000000E+00  0.00000000E+00  0.00000000E+00
  0.00000000E+00  0.00000000E+00  0.00000000E+00
  0.00000000E+00  0.00000000E+00  0.00000000E+00
  0.00000000E+00  0.00000000E+00  0.00000000E+00
  0.00000000E+00  0.00000000E+00  0.00000000E+00
  0.00000000E+00  0.00000000E+00  0.00000000E+00
  0.00000000E+00  0.00000000E+00  0.00000000E+00
  0.00000000E+00  0.00000000E+00  0.00000000E+00
  0.00000000E+00  0.00000000E+00  0.00000000E+00
  0.00000000E+00  0.00000000E+00  0.00000000E+00
  0.00000000E+00  0.00000000E+00  0.00000000E+00
  0.00000000E+00  0.00000000E+00  0.00000000E+00
  0.00000000E+00  0.00000000E+00  0.00000000E+00
  0.00000000E+00  0.00000000E+00  0.00000000E+00
  0.00000000E+00  0.00000000E+00  0.00000000E+00
  0.00000000E+00  0.00000000E+00  0.00000000E+00
  0.00000000E+00  0.00000000E+00  0.00000000E+00
  0.00000000E+00  0.00000000E+00  0.00000000E+00
  0.00000000E+00  0.00000000E+00  0.00000000E+00
  0.00000000E+00  0.00000000E+00  0.00000000E+00
  0.00000000E+00  0.00000000E+00  0.00000000E+00
  0.00000000E+00  0.00000000E+00  0.00000000E+00
  0.00000000E+00  0.00000000E+00  0.00000000E+00
  0.00000000E+00  0.00000000E+00  0.00000000E+00
  0.00000000E+00  0.00000000E+00  0.00000000E+00
  0.00000000E+00  0.00000000E+00  0.00000000E+00
  0.00000000E+00  0.00000000E+00  0.00000000E+00
  0.00000000E+00  0.00000000E+00  0.00000000E+00
  0.00000000E+00  0.00000000E+00  0.00000000E+00
  0.00000000E+00  0.00000000E+00  0.00000000E+00
  0.00000000E+00  0.00000000E+00  0.00000000E+00
  0.00000000E+00  0.00000000E+00  0.00000000E+00
  0.00000000E+00  0.00000000E+00  0.00000000E+00
  0.00000000E+00  0.00000000E+00  0.00000000E+00
  0.00000000E+00  0.00000000E+00  0.00000000E+00
  0.00000000E+00  0.00000000E+00  0.00000000E+00
  0.00000000E+00  0.00000000E+00  0.00000000E+00
  0.00000000E+00  0.00000000E+00  0.00000000E+00
  0.00000000E+00  0.00000000E+00  0.00000000E+00
  0.00000000E+00  0.00000000E+00  0.00000000E+00
  0.00000000E+00  0.00000000E+00  0.00000000E+00
  0.00000000E+00  0.00000000E+00  0.00000000E+00
