#BCC aalvarado POSCAR generator         
    12.76000000000000     
     1.0171079156012062    0.0005947104062736   -0.0000416772646485
     0.0005948955021216    1.0173377698138906    0.0001378616607121
    -0.0000415702060748    0.0001377523847866    1.0176052581722557
   Ta   W 
    76    52
Direct
  0.4985748340535796  0.5000891049106776  0.4993400573732629
  0.6271324589436579  0.3759957927911907  0.3712796830424656
  0.3708978564392861  0.3749140927290669  0.3752752005372171
  0.3726247570686196  0.3771639722376761  0.6264306886851335
  0.7497809749730582  0.7467944922953246  0.7535634617450737
  0.7502833252102601  0.7493045057374396  0.4975169848211177
  0.7499741640393092  0.4994501087437695  0.5000794315734645
  0.7514287853707711  0.5007238425383921  0.7528858975415562
  0.4980574831147384  0.7459674134939028  0.7519436840540112
  0.4991249436829494  0.5006185925849820  0.2462343643412363
  0.4989818369411924  0.7501719287388361  0.2490944066647314
  0.5009125711989462  0.2516208419249722  0.2486095051948898
  0.7492238513990197  0.2491941834087955  0.4984362878178923
  0.5010307105921652  0.2486953666080170  0.5008262753616155
  0.2490275351411261  0.2502908550916342  0.5025448617682016
  0.2492963146926693  0.5029057442562358  0.2463224210665011
  0.5010583704576079  0.2491245510350629  0.7487104864204879
  0.2499943556142419  0.7499048889129182  0.2504341621985999
  0.2492001551860201  0.7473649888573639  0.4995220009952657
  0.2506143625160194  0.7452611370537984  0.7490532289570124
  0.8792920223131355  0.8748978360310751  0.8766463863723634
  0.8777936014148388  0.8743359816981109  0.6224010951313181
  0.8773829345992209  0.6276485250661673  0.6250726655112542
  0.6240815902099530  0.8752825798978436  0.6243166541202820
  0.6233858425863191  0.8751852006869429  0.8746916993372220
  0.8752882277552811  0.8752149450892432  0.3754940865365902
  0.8740648512566136  0.3739378544504403  0.3705511908295822
  0.8742144712108697  0.3741966314650525  0.6262062719664642
  0.6257822875666388  0.3765816337122943  0.8742211911761456
  0.3740784160222964  0.3761892434732326  0.8697725025348250
  0.3734283150095174  0.8766126505155126  0.3766105771513499
  0.3759137672508842  0.8747329954476465  0.6230070902815169
  0.3737626102259316  0.8763205493170471  0.8757820883032756
  0.8764933368801939  0.8745841652889212  0.1287953480924561
  0.6292009930045089  0.8747185292463128  0.1282805608851850
  0.3730748521321111  0.6271474296864836  0.1223395751366869
  0.8769409327399851  0.1270337275492257  0.1268284419596377
  0.6292476675053115  0.1250536744923446  0.1289356139072740
  0.3712978905823394  0.1240676048764481  0.1263699450233904
  0.3698326808276705  0.1240454359427777  0.3727207007285996
  0.8739039248189339  0.1239344686921870  0.6248825402073961
  0.6275355217897561  0.1226486027614662  0.6257684525291433
  0.1256374593961128  0.1242794152952524  0.3741013210576053
  0.1209918653512687  0.3731994811076224  0.1245020609631480
  0.1251186794865584  0.3739676537214704  0.3717463784729161
  0.1252074406158702  0.1230499067573603  0.6231980282029989
  0.1229225329297910  0.6255200429550909  0.3756543917065419
  0.8787928670385036  0.1269711494136795  0.8784400780842456
  0.3728148160762554  0.1243431799815929  0.8755170216938327
  0.1257511227941144  0.1256623000026548  0.8781648393930259
  0.1251861077435754  0.8763146326272958  0.1240651359309834
  0.1229338768717255  0.8741101233461410  0.6228332675010750
  0.1260245201360704  0.8743529846357611  0.8784993384109144
  0.0012717824386179  0.0007160116940826  0.7505241464407564
 -0.0001856985770264  0.7445762759458689  0.0009186086072593
  0.7513655682892436  0.7443178301296480  0.0007881382315422
  0.7508560709059502 -0.0002772855721441  0.7532814852946677
  0.7490411174485921  0.0018126645760877 -0.0004504647680602
  0.0002688193850207  0.5003930683256258  0.5008154664578601
  0.0024149386716475  0.4992788548843580  0.7527668863791632
  0.5004135008470972  0.5011483081446402  0.0002686270451954
  0.5005989490152603  0.7470709396807549  0.0003484387409672
  0.5013740822086937  0.0016771897215882  0.4977678125996380
  0.5015392220271554  0.0002662355104764  0.0024570563128773
  0.0012379133517756  0.0011207631746813  0.2518985073450488
 -0.0033118519877169  0.5023099984562261  0.2465259299419628
  0.5015862037347737 -0.0013748216263675  0.2520083602277612
 -0.0003941036107063  0.2511132468809626  0.5009703233269168
  0.0018237715415069  0.2543951902487474  0.7513066235657934
  0.7507457237506230  0.2538753554585401  0.0010278792051501
  0.5014987708716541  0.2523328947415536  0.0012296933173203
  0.2484821941665409  0.2530982351540788  0.0005031318780847
  0.2481327020556779  0.5003983442604748 -0.0023786737589676
  0.2500960668633439 -0.0002060025416165  0.7486017441474391
  0.6224270756637815  0.6255232863770219  0.6234491284911713
  0.6259014036293972  0.6255822793662564  0.3734789018433090
  0.6245819674223814  0.3747727807267683  0.6272259259983228
  0.3741607243203386  0.6255730827625373  0.3759424078057794
  0.3747103638626608  0.6222513124673773  0.6247484512072532
  0.4994742154339362  0.5009462707461371  0.7495055597352356
  0.4980997392275517  0.7490883130762233  0.4984823654137615
  0.7502997002335869  0.7480201770325422  0.2501307640187581
  0.7510519233966040  0.5011637095732748  0.2455485158908950
  0.7501690085783240  0.2508966730280971  0.2497171457204685
  0.2491514223931925  0.2506260972102969  0.2474118622320318
  0.2493235512757231  0.5018994247356193  0.5018397917088031
  0.7496545127465664  0.2519504529191690  0.7516207956786649
  0.2490290698244025  0.2516638864189970  0.7489472932270934
  0.2472594330088226  0.5021027367740896  0.7501222719633249
  0.8774444617197071  0.6229169831138456  0.8772434013677077
  0.6249665991093885  0.6214498128685984  0.8753921686986438
  0.8751362550860623  0.6276338994396122  0.3720310677253239
  0.6273461179133506  0.8739744902684581  0.3751761261599289
  0.8750727897249307  0.3752417148573048  0.8778294964382839
  0.3729696957340382  0.6236805983695881  0.8738375188804776
  0.8740030711982169  0.6232174866323464  0.1254187185383846
  0.6283875760512073  0.6243573937924469  0.1263725940234236
  0.8753682911830393  0.3757094307809412  0.1246556069896413
  0.6290758966009758  0.3765022708189770  0.1247922806497193
  0.3722743460155989  0.3745108942729579  0.1247335346012364
  0.3716193610048175  0.8763966034350762  0.1250037531404551
  0.8755987327367647  0.1236685768927013  0.3738774466484903
  0.6280856627096824  0.1241001158924116  0.3746894408630930
  0.3745217795904737  0.1242867596401560  0.6256671902363407
  0.1243066888088410  0.1251165540277485  0.1260442355514845
  0.1277744979667726  0.3760122453855849  0.6260741819736400
  0.1223736157524835  0.6262436466390100  0.1233696141721974
  0.1251463178004131  0.6248719829768919  0.6245340216005838
  0.6254477035337291  0.1265503922791820  0.8737256830118881
  0.1248933707919130  0.3757670869301666  0.8758757875621089
  0.1249101714615948  0.6242730923482553  0.8743812629274819
  0.1233191804980261  0.8756521800260504  0.3750270225871904
  0.0016509892315396  0.0011707401301115  0.0031462649840056
  0.0022342676707587  0.7455663786038849  0.7520676969762734
 -0.0003398918564294  0.0000195870093313  0.4971019291275512
  0.0012563602257483  0.7484183645108092  0.4984882008590483
  0.7489942731487943  0.0006049949697058  0.4977848907750158
 -0.0013950686231380  0.5009068622228464 -0.0010330532017022
  0.7511566907723276  0.5003334213112637  0.0004828484402381
  0.4996713766702847  0.0017517843306138  0.7497783105677696
  0.0002090374356638  0.7484435195275889  0.2495442365296549
  0.7510400239774910  0.0006440021574172  0.2534634751849119
 -0.0017376515466195  0.2494376242755753  0.2485886771496211
 -0.0000247811724600  0.2538673840904873  0.0001611194911584
  0.2495057699090510  0.7471886012019761 -0.0001465192965504
  0.2480591630549301 -0.0020055970299346  0.2490597761901225
  0.2501547544807131 -0.0007621526112526  0.4998930781610136
  0.2507749764369355  0.0004789539678316  0.0019963829419097
 
  0.00000000E+00  0.00000000E+00  0.00000000E+00
  0.00000000E+00  0.00000000E+00  0.00000000E+00
  0.00000000E+00  0.00000000E+00  0.00000000E+00
  0.00000000E+00  0.00000000E+00  0.00000000E+00
  0.00000000E+00  0.00000000E+00  0.00000000E+00
  0.00000000E+00  0.00000000E+00  0.00000000E+00
  0.00000000E+00  0.00000000E+00  0.00000000E+00
  0.00000000E+00  0.00000000E+00  0.00000000E+00
  0.00000000E+00  0.00000000E+00  0.00000000E+00
  0.00000000E+00  0.00000000E+00  0.00000000E+00
  0.00000000E+00  0.00000000E+00  0.00000000E+00
  0.00000000E+00  0.00000000E+00  0.00000000E+00
  0.00000000E+00  0.00000000E+00  0.00000000E+00
  0.00000000E+00  0.00000000E+00  0.00000000E+00
  0.00000000E+00  0.00000000E+00  0.00000000E+00
  0.00000000E+00  0.00000000E+00  0.00000000E+00
  0.00000000E+00  0.00000000E+00  0.00000000E+00
  0.00000000E+00  0.00000000E+00  0.00000000E+00
  0.00000000E+00  0.00000000E+00  0.00000000E+00
  0.00000000E+00  0.00000000E+00  0.00000000E+00
  0.00000000E+00  0.00000000E+00  0.00000000E+00
  0.00000000E+00  0.00000000E+00  0.00000000E+00
  0.00000000E+00  0.00000000E+00  0.00000000E+00
  0.00000000E+00  0.00000000E+00  0.00000000E+00
  0.00000000E+00  0.00000000E+00  0.00000000E+00
  0.00000000E+00  0.00000000E+00  0.00000000E+00
  0.00000000E+00  0.00000000E+00  0.00000000E+00
  0.00000000E+00  0.00000000E+00  0.00000000E+00
  0.00000000E+00  0.00000000E+00  0.00000000E+00
  0.00000000E+00  0.00000000E+00  0.00000000E+00
  0.00000000E+00  0.00000000E+00  0.00000000E+00
  0.00000000E+00  0.00000000E+00  0.00000000E+00
  0.00000000E+00  0.00000000E+00  0.00000000E+00
  0.00000000E+00  0.00000000E+00  0.00000000E+00
  0.00000000E+00  0.00000000E+00  0.00000000E+00
  0.00000000E+00  0.00000000E+00  0.00000000E+00
  0.00000000E+00  0.00000000E+00  0.00000000E+00
  0.00000000E+00  0.00000000E+00  0.00000000E+00
  0.00000000E+00  0.00000000E+00  0.00000000E+00
  0.00000000E+00  0.00000000E+00  0.00000000E+00
  0.00000000E+00  0.00000000E+00  0.00000000E+00
  0.00000000E+00  0.00000000E+00  0.00000000E+00
  0.00000000E+00  0.00000000E+00  0.00000000E+00
  0.00000000E+00  0.00000000E+00  0.00000000E+00
  0.00000000E+00  0.00000000E+00  0.00000000E+00
  0.00000000E+00  0.00000000E+00  0.00000000E+00
  0.00000000E+00  0.00000000E+00  0.00000000E+00
  0.00000000E+00  0.00000000E+00  0.00000000E+00
  0.00000000E+00  0.00000000E+00  0.00000000E+00
  0.00000000E+00  0.00000000E+00  0.00000000E+00
  0.00000000E+00  0.00000000E+00  0.00000000E+00
  0.00000000E+00  0.00000000E+00  0.00000000E+00
  0.00000000E+00  0.00000000E+00  0.00000000E+00
  0.00000000E+00  0.00000000E+00  0.00000000E+00
  0.00000000E+00  0.00000000E+00  0.00000000E+00
  0.00000000E+00  0.00000000E+00  0.00000000E+00
  0.00000000E+00  0.00000000E+00  0.00000000E+00
  0.00000000E+00  0.00000000E+00  0.00000000E+00
  0.00000000E+00  0.00000000E+00  0.00000000E+00
  0.00000000E+00  0.00000000E+00  0.00000000E+00
  0.00000000E+00  0.00000000E+00  0.00000000E+00
  0.00000000E+00  0.00000000E+00  0.00000000E+00
  0.00000000E+00  0.00000000E+00  0.00000000E+00
  0.00000000E+00  0.00000000E+00  0.00000000E+00
  0.00000000E+00  0.00000000E+00  0.00000000E+00
  0.00000000E+00  0.00000000E+00  0.00000000E+00
  0.00000000E+00  0.00000000E+00  0.00000000E+00
  0.00000000E+00  0.00000000E+00  0.00000000E+00
  0.00000000E+00  0.00000000E+00  0.00000000E+00
  0.00000000E+00  0.00000000E+00  0.00000000E+00
  0.00000000E+00  0.00000000E+00  0.00000000E+00
  0.00000000E+00  0.00000000E+00  0.00000000E+00
  0.00000000E+00  0.00000000E+00  0.00000000E+00
  0.00000000E+00  0.00000000E+00  0.00000000E+00
  0.00000000E+00  0.00000000E+00  0.00000000E+00
  0.00000000E+00  0.00000000E+00  0.00000000E+00
  0.00000000E+00  0.00000000E+00  0.00000000E+00
  0.00000000E+00  0.00000000E+00  0.00000000E+00
  0.00000000E+00  0.00000000E+00  0.00000000E+00
  0.00000000E+00  0.00000000E+00  0.00000000E+00
  0.00000000E+00  0.00000000E+00  0.00000000E+00
  0.00000000E+00  0.00000000E+00  0.00000000E+00
  0.00000000E+00  0.00000000E+00  0.00000000E+00
  0.00000000E+00  0.00000000E+00  0.00000000E+00
  0.00000000E+00  0.00000000E+00  0.00000000E+00
  0.00000000E+00  0.00000000E+00  0.00000000E+00
  0.00000000E+00  0.00000000E+00  0.00000000E+00
  0.00000000E+00  0.00000000E+00  0.00000000E+00
  0.00000000E+00  0.00000000E+00  0.00000000E+00
  0.00000000E+00  0.00000000E+00  0.00000000E+00
  0.00000000E+00  0.00000000E+00  0.00000000E+00
  0.00000000E+00  0.00000000E+00  0.00000000E+00
  0.00000000E+00  0.00000000E+00  0.00000000E+00
  0.00000000E+00  0.00000000E+00  0.00000000E+00
  0.00000000E+00  0.00000000E+00  0.00000000E+00
  0.00000000E+00  0.00000000E+00  0.00000000E+00
  0.00000000E+00  0.00000000E+00  0.00000000E+00
  0.00000000E+00  0.00000000E+00  0.00000000E+00
  0.00000000E+00  0.00000000E+00  0.00000000E+00
  0.00000000E+00  0.00000000E+00  0.00000000E+00
  0.00000000E+00  0.00000000E+00  0.00000000E+00
  0.00000000E+00  0.00000000E+00  0.00000000E+00
  0.00000000E+00  0.00000000E+00  0.00000000E+00
  0.00000000E+00  0.00000000E+00  0.00000000E+00
  0.00000000E+00  0.00000000E+00  0.00000000E+00
  0.00000000E+00  0.00000000E+00  0.00000000E+00
  0.00000000E+00  0.00000000E+00  0.00000000E+00
  0.00000000E+00  0.00000000E+00  0.00000000E+00
  0.00000000E+00  0.00000000E+00  0.00000000E+00
  0.00000000E+00  0.00000000E+00  0.00000000E+00
  0.00000000E+00  0.00000000E+00  0.00000000E+00
  0.00000000E+00  0.00000000E+00  0.00000000E+00
  0.00000000E+00  0.00000000E+00  0.00000000E+00
  0.00000000E+00  0.00000000E+00  0.00000000E+00
  0.00000000E+00  0.00000000E+00  0.00000000E+00
  0.00000000E+00  0.00000000E+00  0.00000000E+00
  0.00000000E+00  0.00000000E+00  0.00000000E+00
  0.00000000E+00  0.00000000E+00  0.00000000E+00
  0.00000000E+00  0.00000000E+00  0.00000000E+00
  0.00000000E+00  0.00000000E+00  0.00000000E+00
  0.00000000E+00  0.00000000E+00  0.00000000E+00
  0.00000000E+00  0.00000000E+00  0.00000000E+00
  0.00000000E+00  0.00000000E+00  0.00000000E+00
  0.00000000E+00  0.00000000E+00  0.00000000E+00
  0.00000000E+00  0.00000000E+00  0.00000000E+00
  0.00000000E+00  0.00000000E+00  0.00000000E+00
  0.00000000E+00  0.00000000E+00  0.00000000E+00
  0.00000000E+00  0.00000000E+00  0.00000000E+00
