#BCC aalvarado POSCAR generator         
    12.76000000000000     
     1.0181376846467796    0.0001706766913671   -0.0020818093769032
     0.0001700743584951    1.0162351314188052   -0.0005732773467179
    -0.0020812838361304   -0.0005736067196617    1.0182075567318578
   Ta   W 
    76    52
Direct
  0.4995614911720677  0.4983820288357351  0.4994917080558787
  0.6289509911028257  0.6242624927967495  0.6273582162917561
  0.6262299783602013  0.6216191902380269  0.3716428743491166
  0.6226343186686751  0.3742537101735912  0.3708562158171931
  0.3743031000389883  0.3731135653175618  0.6246349916977079
  0.3731439207219076  0.6244644351790065  0.6211836019837911
  0.7503926222535179  0.7513649018293291  0.5019526059701755
  0.7510704856648621  0.4963352774536523  0.4992455565639568
  0.5006165182659970  0.4990330993794601  0.7507423808831057
  0.5015479525997197  0.7494300731734015  0.4997918344901228
  0.5002005330442258  0.7508180457278734  0.7516007507562705
  0.7526407229042110  0.7522151695177437  0.2466718287722925
  0.5009489622697250  0.7508750438518503  0.2484213973784849
  0.7483511810900688  0.2522723375562867  0.4987552524025615
  0.2452084779810400  0.2520165172142702  0.2510612768096924
  0.2506853987267147  0.2505062054952862  0.4975757694935515
  0.2516074532723481  0.5031593453386258  0.7528331100216961
  0.2499462511517104  0.7459691779006331  0.7527818169056969
  0.8723686987524615  0.8734053450081033  0.8741685522711824
  0.8768140091672044  0.6240953981504974  0.6276370409952816
  0.8749899319066293  0.6237027548165824  0.8739604227677324
  0.6313232889524480  0.6261455013736369  0.8739098191979718
  0.8775951522390792  0.8784330785504539  0.3781691055358092
  0.8763318116567232  0.6258947070208333  0.3753527556931797
  0.6271111435727665  0.8766341169421346  0.3764568847589470
  0.8761951811780528  0.3741686144565726  0.6279564827925339
  0.8767918088777860  0.3774432677916270  0.8735233834758436
  0.3723245584166416  0.3717920673550292  0.8751707953691350
  0.3720562260242722  0.8725517435083014  0.3739404690261346
  0.3714340372618988  0.8743417626637939  0.6246072230366818
  0.3710132928778946  0.8772064971183139  0.8765994388154970
  0.6261010835734774  0.6224625648214951  0.1254076737330418
  0.6236840592615270  0.3753864577565664  0.1300970388258685
  0.3731829135475743  0.3763185109815527  0.1254726652339512
  0.3718227260790719  0.6233366018690762  0.1260390115025256
  0.3703292875623411  0.8737999936270544  0.1231146097502569
  0.6233225034033838  0.1293615793935114  0.1270734796189293
  0.8760812793226825  0.1245056017305817  0.3764754781926445
  0.3734558640798336  0.1274686589939919  0.1235526192925375
  0.3763595579084879  0.1276794550831840  0.3738235234528296
  0.8735951548712437  0.1241094593039367  0.6231874191498885
  0.6261791682583786  0.1264043570309445  0.6259244770383838
  0.1182392118694170  0.1250635201224934  0.3755128926882264
  0.1242746277194318  0.1249891422025326  0.6251204915244409
  0.1255611950051838  0.3745438627579046  0.6257624839715300
  0.1287196841822531  0.6234808663555584  0.1249351733959570
  0.1280832638989359  0.6261866634209787  0.3748405596723915
  0.1250756810775444  0.6244208806038325  0.6213106509562887
  0.8723940956505128  0.1247937507201284  0.8729267403205934
  0.6261572458288964  0.1261734530059689  0.8705060501565338
  0.1287557835497681  0.1250557087627134  0.8758635164201429
  0.1263486586608863  0.3751419043619208  0.8773643842113403
  0.1255990231336702  0.8749301950876650  0.6227550595014457
  0.1283043043310037  0.8769810206244332  0.8775154077822879
 -0.0015737625486749  0.0002923971588876  0.0049644540948625
 -0.0014417371432448 -0.0021602302135798  0.7498907009670139
  0.0023293373276874  0.7508231341425001  0.7516338229401353
  0.0004895836807562  0.7506392444339411  0.0029143382547232
  0.7500072474130652 -0.0006853615009190  0.0029220845355599
 -0.0000744979961071  0.4969211149714777  0.4961611020396996
  0.7515837282981416  0.4978081471457755  0.0014904763930150
  0.5005800698723210  0.5000580298975221 -0.0042577474037796
  0.5015042076513133  0.7507037460779552 -0.0019171624943915
  0.5003589524154411  0.0015875638653379  0.5009942070195824
  0.4999333214595030 -0.0001498696335432  0.7491320431838467
  0.5018804985831098 -0.0005454061687837 -0.0018378741032632
 -0.0004784226426202  0.7515915633840620  0.2465569398720239
  0.7497919980131341  0.0002636566521871  0.2473392464770644
 -0.0002983481475497  0.4967131620641793  0.2495929403515585
  0.5017415321603437 -0.0001704244059451  0.2499010847566837
  0.0005540362262647  0.2481801286197632  0.7517519890669030
 -0.0010881584107812  0.2491908063512616  0.0056393615489174
  0.7514336314943173  0.2518542735763535  0.0018511960527396
  0.5003251999049159  0.2506545486527493 -0.0034359511501785
  0.2449468146147736  0.0006085737496064  0.2494881338593350
  0.2503568478433324  0.0019608487737789  0.4985745922001410
  0.2518336689162951  0.0014616188832189  0.7496851371849693
  0.2479612675631570  0.0016824251964078  0.0020921875095891
  0.3756571622886834  0.3762242609713858  0.3735427757925164
  0.6244633884775559  0.3724956759279258  0.6252066780575304
  0.3724756299742292  0.6235564864931240  0.3728916298216552
  0.7505375104389713  0.7525918264240672  0.7490576126892784
  0.7487786422480140  0.4980107242879174  0.7501116326437614
  0.7543469946767535  0.4990712095568799  0.2488160066284091
  0.4970146652894510  0.5002714032487872  0.2513972120909460
  0.7520544086914087  0.2498024222717720  0.2508838295186245
  0.4981004797179756  0.2501955617474463  0.2513572866134675
  0.4996365264157371  0.2500168637039246  0.4999390279367064
  0.2484038284280682  0.4975408163561306  0.2508682977751253
  0.2509402962788603  0.4979479529334996  0.4962672177419104
  0.7482208567772434  0.2514374032000366  0.7492931559015581
  0.5000382827193649  0.2497388055450252  0.7493259471145703
  0.2522289630490460  0.2485548553528626  0.7494921662288098
  0.2479255655542227  0.7506987281344667  0.2502314070973060
  0.2501302226991415  0.7500115936462807  0.4974980619844159
  0.8753353936779974  0.8757393593161753  0.6243987577591134
  0.6278237895397798  0.8765369528571832  0.6259282340284046
  0.6277584629143739  0.8744869455444728  0.8731678754314056
  0.8744659405666537  0.3719061184794715  0.3732037226528514
  0.6264330607514675  0.3741123094843130  0.8723983408352874
  0.3740830662696115  0.6249058819112020  0.8774285610945562
  0.8758818474155248  0.8754610359255235  0.1253240496683985
  0.8756135550766886  0.6231332461803658  0.1234783765679493
  0.6255297157459175  0.8741932417788766  0.1235337885883730
  0.8751587633388438  0.3749238748933917  0.1271926639969180
  0.8752931736087151  0.1267990310179234  0.1299200571875983
  0.6254954913605028  0.1284214116103899  0.3757550604604717
  0.3756601659255054  0.1270565429276175  0.6262196567106343
  0.1239336179048320  0.1256059135357935  0.1258883540315294
  0.1251035750165072  0.3761741251671645  0.1248009925086901
  0.1246119583430565  0.3751663732225101  0.3745584765397613
  0.3726948449104149  0.1256866858140138  0.8736505610459500
  0.1242095743785536  0.6226649303433087  0.8783065306886026
  0.1261278479460783  0.8748505996818848  0.1258482777836187
  0.1230260008585885  0.8740014587511785  0.3759096770183160
  0.7512185976620495  0.7514928641243427  0.0017826012325619
  0.7488097918973444 -0.0024425526001243  0.7493993615379724
 -0.0001898952643434 -0.0013751959025034  0.5003520897216691
  0.0002635005914088  0.7512906655639080  0.4995976519903778
  0.7486436848387547  0.0004219364575380  0.5009553750695287
  0.0027245367548084  0.5010572709371157  0.7512077482897890
  0.0004856898590073  0.4996956449446554  0.0037267414249782
 -0.0002650968333639 -0.0001000211543134  0.2481517871106703
 -0.0007936712393128  0.2517444678422270  0.2486309184923800
 -0.0005668749365097  0.2516592960471841  0.4979178932057114
  0.2480746123467535  0.2496240783531046  0.0023245117057197
  0.2491106117217961  0.5005541208232516 -0.0003917398214200
  0.2486183538301951  0.7486014242921392 -0.0005091721227253
 
  0.00000000E+00  0.00000000E+00  0.00000000E+00
  0.00000000E+00  0.00000000E+00  0.00000000E+00
  0.00000000E+00  0.00000000E+00  0.00000000E+00
  0.00000000E+00  0.00000000E+00  0.00000000E+00
  0.00000000E+00  0.00000000E+00  0.00000000E+00
  0.00000000E+00  0.00000000E+00  0.00000000E+00
  0.00000000E+00  0.00000000E+00  0.00000000E+00
  0.00000000E+00  0.00000000E+00  0.00000000E+00
  0.00000000E+00  0.00000000E+00  0.00000000E+00
  0.00000000E+00  0.00000000E+00  0.00000000E+00
  0.00000000E+00  0.00000000E+00  0.00000000E+00
  0.00000000E+00  0.00000000E+00  0.00000000E+00
  0.00000000E+00  0.00000000E+00  0.00000000E+00
  0.00000000E+00  0.00000000E+00  0.00000000E+00
  0.00000000E+00  0.00000000E+00  0.00000000E+00
  0.00000000E+00  0.00000000E+00  0.00000000E+00
  0.00000000E+00  0.00000000E+00  0.00000000E+00
  0.00000000E+00  0.00000000E+00  0.00000000E+00
  0.00000000E+00  0.00000000E+00  0.00000000E+00
  0.00000000E+00  0.00000000E+00  0.00000000E+00
  0.00000000E+00  0.00000000E+00  0.00000000E+00
  0.00000000E+00  0.00000000E+00  0.00000000E+00
  0.00000000E+00  0.00000000E+00  0.00000000E+00
  0.00000000E+00  0.00000000E+00  0.00000000E+00
  0.00000000E+00  0.00000000E+00  0.00000000E+00
  0.00000000E+00  0.00000000E+00  0.00000000E+00
  0.00000000E+00  0.00000000E+00  0.00000000E+00
  0.00000000E+00  0.00000000E+00  0.00000000E+00
  0.00000000E+00  0.00000000E+00  0.00000000E+00
  0.00000000E+00  0.00000000E+00  0.00000000E+00
  0.00000000E+00  0.00000000E+00  0.00000000E+00
  0.00000000E+00  0.00000000E+00  0.00000000E+00
  0.00000000E+00  0.00000000E+00  0.00000000E+00
  0.00000000E+00  0.00000000E+00  0.00000000E+00
  0.00000000E+00  0.00000000E+00  0.00000000E+00
  0.00000000E+00  0.00000000E+00  0.00000000E+00
  0.00000000E+00  0.00000000E+00  0.00000000E+00
  0.00000000E+00  0.00000000E+00  0.00000000E+00
  0.00000000E+00  0.00000000E+00  0.00000000E+00
  0.00000000E+00  0.00000000E+00  0.00000000E+00
  0.00000000E+00  0.00000000E+00  0.00000000E+00
  0.00000000E+00  0.00000000E+00  0.00000000E+00
  0.00000000E+00  0.00000000E+00  0.00000000E+00
  0.00000000E+00  0.00000000E+00  0.00000000E+00
  0.00000000E+00  0.00000000E+00  0.00000000E+00
  0.00000000E+00  0.00000000E+00  0.00000000E+00
  0.00000000E+00  0.00000000E+00  0.00000000E+00
  0.00000000E+00  0.00000000E+00  0.00000000E+00
  0.00000000E+00  0.00000000E+00  0.00000000E+00
  0.00000000E+00  0.00000000E+00  0.00000000E+00
  0.00000000E+00  0.00000000E+00  0.00000000E+00
  0.00000000E+00  0.00000000E+00  0.00000000E+00
  0.00000000E+00  0.00000000E+00  0.00000000E+00
  0.00000000E+00  0.00000000E+00  0.00000000E+00
  0.00000000E+00  0.00000000E+00  0.00000000E+00
  0.00000000E+00  0.00000000E+00  0.00000000E+00
  0.00000000E+00  0.00000000E+00  0.00000000E+00
  0.00000000E+00  0.00000000E+00  0.00000000E+00
  0.00000000E+00  0.00000000E+00  0.00000000E+00
  0.00000000E+00  0.00000000E+00  0.00000000E+00
  0.00000000E+00  0.00000000E+00  0.00000000E+00
  0.00000000E+00  0.00000000E+00  0.00000000E+00
  0.00000000E+00  0.00000000E+00  0.00000000E+00
  0.00000000E+00  0.00000000E+00  0.00000000E+00
  0.00000000E+00  0.00000000E+00  0.00000000E+00
  0.00000000E+00  0.00000000E+00  0.00000000E+00
  0.00000000E+00  0.00000000E+00  0.00000000E+00
  0.00000000E+00  0.00000000E+00  0.00000000E+00
  0.00000000E+00  0.00000000E+00  0.00000000E+00
  0.00000000E+00  0.00000000E+00  0.00000000E+00
  0.00000000E+00  0.00000000E+00  0.00000000E+00
  0.00000000E+00  0.00000000E+00  0.00000000E+00
  0.00000000E+00  0.00000000E+00  0.00000000E+00
  0.00000000E+00  0.00000000E+00  0.00000000E+00
  0.00000000E+00  0.00000000E+00  0.00000000E+00
  0.00000000E+00  0.00000000E+00  0.00000000E+00
  0.00000000E+00  0.00000000E+00  0.00000000E+00
  0.00000000E+00  0.00000000E+00  0.00000000E+00
  0.00000000E+00  0.00000000E+00  0.00000000E+00
  0.00000000E+00  0.00000000E+00  0.00000000E+00
  0.00000000E+00  0.00000000E+00  0.00000000E+00
  0.00000000E+00  0.00000000E+00  0.00000000E+00
  0.00000000E+00  0.00000000E+00  0.00000000E+00
  0.00000000E+00  0.00000000E+00  0.00000000E+00
  0.00000000E+00  0.00000000E+00  0.00000000E+00
  0.00000000E+00  0.00000000E+00  0.00000000E+00
  0.00000000E+00  0.00000000E+00  0.00000000E+00
  0.00000000E+00  0.00000000E+00  0.00000000E+00
  0.00000000E+00  0.00000000E+00  0.00000000E+00
  0.00000000E+00  0.00000000E+00  0.00000000E+00
  0.00000000E+00  0.00000000E+00  0.00000000E+00
  0.00000000E+00  0.00000000E+00  0.00000000E+00
  0.00000000E+00  0.00000000E+00  0.00000000E+00
  0.00000000E+00  0.00000000E+00  0.00000000E+00
  0.00000000E+00  0.00000000E+00  0.00000000E+00
  0.00000000E+00  0.00000000E+00  0.00000000E+00
  0.00000000E+00  0.00000000E+00  0.00000000E+00
  0.00000000E+00  0.00000000E+00  0.00000000E+00
  0.00000000E+00  0.00000000E+00  0.00000000E+00
  0.00000000E+00  0.00000000E+00  0.00000000E+00
  0.00000000E+00  0.00000000E+00  0.00000000E+00
  0.00000000E+00  0.00000000E+00  0.00000000E+00
  0.00000000E+00  0.00000000E+00  0.00000000E+00
  0.00000000E+00  0.00000000E+00  0.00000000E+00
  0.00000000E+00  0.00000000E+00  0.00000000E+00
  0.00000000E+00  0.00000000E+00  0.00000000E+00
  0.00000000E+00  0.00000000E+00  0.00000000E+00
  0.00000000E+00  0.00000000E+00  0.00000000E+00
  0.00000000E+00  0.00000000E+00  0.00000000E+00
  0.00000000E+00  0.00000000E+00  0.00000000E+00
  0.00000000E+00  0.00000000E+00  0.00000000E+00
  0.00000000E+00  0.00000000E+00  0.00000000E+00
  0.00000000E+00  0.00000000E+00  0.00000000E+00
  0.00000000E+00  0.00000000E+00  0.00000000E+00
  0.00000000E+00  0.00000000E+00  0.00000000E+00
  0.00000000E+00  0.00000000E+00  0.00000000E+00
  0.00000000E+00  0.00000000E+00  0.00000000E+00
  0.00000000E+00  0.00000000E+00  0.00000000E+00
  0.00000000E+00  0.00000000E+00  0.00000000E+00
  0.00000000E+00  0.00000000E+00  0.00000000E+00
  0.00000000E+00  0.00000000E+00  0.00000000E+00
  0.00000000E+00  0.00000000E+00  0.00000000E+00
  0.00000000E+00  0.00000000E+00  0.00000000E+00
  0.00000000E+00  0.00000000E+00  0.00000000E+00
  0.00000000E+00  0.00000000E+00  0.00000000E+00
  0.00000000E+00  0.00000000E+00  0.00000000E+00
  0.00000000E+00  0.00000000E+00  0.00000000E+00
  0.00000000E+00  0.00000000E+00  0.00000000E+00
