#BCC aalvarado POSCAR generator         
    12.76000000000000     
     1.0087458378718941    0.0007606053453502    0.0003019589734043
     0.0007597933165864    1.0090643905631205    0.0000653545281282
     0.0003018957252336    0.0000652462482856    1.0088111942656581
   Ta   W 
    51    77
Direct
  0.4949757265736111  0.5017098683795377  0.5011427593103474
  0.6250491730635597  0.6282428820944793  0.6245984153060694
  0.3740402132642449  0.3754145466549752  0.3704992774416274
  0.6276886917014213  0.3773617099899383  0.6231847334918462
  0.7502253002991721  0.7563429716966776  0.4986645572727950
  0.7503777626231035  0.5004331173410966  0.7550335946962886
  0.4974989551542175  0.4998655201519062  0.7524987137191607
  0.7505291636138497  0.4985716003279556  0.2477245180694575
  0.5010008890561508  0.2469578057410007  0.2457965272009534
  0.7526062027362308  0.2462224300862143  0.4996842829440351
  0.4984856904528868  0.2483935056926997  0.5034148899439553
  0.2484302247516207  0.2511847321634795  0.5033106838440937
  0.2485007803337068  0.5004633311166676  0.5014099718340316
  0.7499989150632606  0.2472541667805080  0.7529088326456883
  0.5001214651926188  0.2500149100242354  0.7509369615282454
  0.2507561910435954  0.5011052937854193  0.7492616982093147
  0.2509155619150243  0.7493319916066925  0.2482489459348879
  0.8737775119534938  0.6269888578301857  0.6235819592711659
  0.6247431763440491  0.8740910792081972  0.8754516344732992
  0.8763395155115324  0.6274381485951273  0.3730625467815195
  0.8764203498809247  0.3741474525746438  0.6243540347268955
  0.3749615219645252  0.8747521268173788  0.3767847078428358
  0.3746718823619040  0.8754753977028675  0.6255002060968065
  0.3748907979649557  0.8742916953361984  0.8740286607348394
  0.8770851253975779  0.6278527608974034  0.1247388958905589
  0.6239967448946389  0.6288042443461439  0.1255225757328079
  0.8768977300466972  0.3732315859131747  0.1236704445696970
  0.3721870809132038  0.3747430103202041  0.1245995121783671
  0.6274154010098200  0.1222295106542995  0.3741393941964128
  0.3725104584798198  0.1217228036926064  0.3748209791549881
  0.1243651568988317  0.1219876598853854  0.3753149759336058
  0.1257553312271947  0.3755820048415901  0.1236090838760130
  0.1243634194857782  0.6244478081220605  0.1238757802459492
  0.3724510593074699  0.1234718602401480  0.8755779147955499
  0.1264162776250559  0.1263765250226753  0.8759333748943594
  0.1250131512611974  0.3728500184029687  0.8776381355351334
  0.1240167280997642  0.8759890075250596  0.3756533819114283
  0.1270909983497582  0.8759666443092403  0.6233259562159300
 -0.0009432289698695 -0.0016281346234670  0.0013135950234428
 -0.0023903580075344 -0.0002478038935747  0.7510099744375801
  0.0004643725489355  0.7510054356263277  0.7523009297926276
  0.7512928100042905  0.0009771043460502  0.7495107483217515
  0.0044497768144536  0.4996343706993176  0.4988699469472906
  0.0020149791677376  0.5017253479012054  0.7506442387575351
  0.7485146209032847  0.4989986695551902 -0.0023866123326446
  0.4999951264131277  0.5001591453244407 -0.0022980333393972
  0.5007352301036336  0.0003983949307682  0.0028867571230784
  0.5016123966595579 -0.0017340003228000  0.2468168892994404
 -0.0009082961706125  0.2476243446835561  0.2510334866531141
  0.6237969114172330  0.6266086405556864  0.3734456563159276
  0.6252655951470960  0.3756259090468522  0.3739024403500887
  0.3736717191701035  0.3743978151453368  0.6266745490287610
  0.3751696118020297  0.6265114564578775  0.3734524073463779
  0.3751181678574978  0.6298189916091852  0.6256419998534687
  0.7509952161106584  0.7525223345450812  0.7509366794136656
  0.7518948398046752  0.5003118920097496  0.4982474834882084
  0.5000339051267252  0.7510861500483782  0.4997636623470048
  0.4994370016525907  0.7491830928183290  0.7504878788086026
  0.7502156835870765  0.7547599946958914  0.2493057675084348
  0.4989539448671250  0.5010425028416784  0.2474979741136960
  0.4988986799176495  0.7516710082647318  0.2487218132048490
  0.7517511430880461  0.2476369221640507  0.2480056563210843
  0.2479676321264957  0.2482284741348687  0.2493751694616567
  0.2493277689463150  0.5022311911147261  0.2512605085253379
  0.2507595962185296  0.2510058973881612  0.7485687479683885
  0.2501586227378482  0.7467471438988588  0.4996376042791995
  0.2489727031418342  0.7478427486522294  0.7513379785966288
  0.8730663504375409  0.8741538410095674  0.8777962203344681
  0.8754287665460831  0.8763188072179642  0.6229665620997590
  0.8756444570739452  0.6273267872673123  0.8769266243213266
  0.6241989344129510  0.6294404832264701  0.8754003138819165
  0.6230166819229104  0.8752340573384626  0.6254363830422226
  0.8760589248722174  0.8764892298046881  0.3730591979962259
  0.6256696676768795  0.8754623937270153  0.3744182858086429
  0.8754800052548114  0.3742923960803159  0.3742303904185129
  0.8775858534876739  0.3729813271403148  0.8768227686694628
  0.6247813867786549  0.3728150308171122  0.8767194288627179
  0.3725389008384148  0.3730942581010911  0.8779734680067232
  0.3736891331558078  0.6280847042648641  0.8760012457289185
  0.8745646983675609  0.8753623363893371  0.1261493750103538
  0.6273423904245552  0.8742428955831065  0.1243612817925956
  0.6246051151688505  0.3731816730807758  0.1247219025071348
  0.3744761058425762  0.6250041503698097  0.1241948581156272
  0.3742259065106014  0.8737954590746093  0.1238418188861382
  0.8737491447847467  0.1236194624454601  0.1255465262469641
  0.6279146803954638  0.1243479274136060  0.1239565998532926
  0.8757494812145160  0.1220689316851390  0.3747012521340832
  0.3727047077959741  0.1249115234737019  0.1234602279997453
  0.8772088866339394  0.1248279131565520  0.6238993912053642
  0.6249180369423681  0.1216092706479917  0.6246607208117779
  0.3735655827515185  0.1213356557572314  0.6270725943868157
  0.1252760396001864  0.1239088191856787  0.1253391345576946
  0.1250813499762903  0.3740545694156543  0.3730394448714856
  0.1247210777842307  0.1240062621964995  0.6257460392595002
  0.1236556234724650  0.3723673141373002  0.6271368590458147
  0.1245817113306032  0.6263798965167426  0.3731461036060893
  0.1259058654489286  0.6286525815429932  0.6247430442187243
  0.8752801320864971  0.1254689145240011  0.8776942467176175
  0.6247659261359142  0.1236287575739263  0.8773880619638417
  0.1261228573286539  0.6257097128698784  0.8780148657328858
  0.1242910342930499  0.8743991929588990  0.1254433527755364
  0.1271723320000040  0.8746866471157290  0.8762454808617788
  0.0002021394987149  0.7523585509709193 -0.0015100318401581
  0.7508378697571105  0.7520182029115975 -0.0006247702362842
  0.7512167687836817  0.0009648078741952  0.0010908211940796
 -0.0026724728906312  0.0010338691183499  0.5007802258596149
  0.0002088473005550  0.7512396785863458  0.4999876517107317
  0.7511968622157130 -0.0005148474381934  0.5002536447733134
 -0.0006969493125992  0.5010931492581979 -0.0023665395690896
  0.4988640254319629  0.7496183040374699  0.0005811593949182
  0.5022691141788836 -0.0007204594049861  0.5011869710036655
  0.5021516370791901  0.0015717019849361  0.7492190427486070
 -0.0020976667900372 -0.0000752974081671  0.2484018963809833
  0.0007247423931143  0.7525776933437353  0.2492047922525288
  0.7511793383156297 -0.0008385932450265  0.2490651323934077
  0.0008233856888572  0.4986676821025253  0.2523786612305564
  0.0005629624853129  0.2495815456865470  0.4997132332441109
 -0.0004102496581041  0.2486656356428439  0.7499366279168490
 -0.0020868843483403  0.2468923737252442  0.0009280461464157
  0.7493622643374434  0.2484697431665605 -0.0005146202290992
  0.5019999614834459  0.2496617316830763 -0.0009244482199854
  0.2504689647413099  0.2482557559173595  0.0007815077200881
  0.2517836801710249  0.5021700394307549 -0.0020384200665998
  0.2495817639534723  0.7504475362409276  0.0001359959854990
  0.2493262017003693 -0.0017927075800332  0.2463064641507635
  0.2493855316301686  0.0012816038915488  0.5017714166072013
  0.2484904181025022  0.0004344858479580  0.7504167030765004
  0.2484934970008667 -0.0017809949442154  0.0021153485734639
 
  0.00000000E+00  0.00000000E+00  0.00000000E+00
  0.00000000E+00  0.00000000E+00  0.00000000E+00
  0.00000000E+00  0.00000000E+00  0.00000000E+00
  0.00000000E+00  0.00000000E+00  0.00000000E+00
  0.00000000E+00  0.00000000E+00  0.00000000E+00
  0.00000000E+00  0.00000000E+00  0.00000000E+00
  0.00000000E+00  0.00000000E+00  0.00000000E+00
  0.00000000E+00  0.00000000E+00  0.00000000E+00
  0.00000000E+00  0.00000000E+00  0.00000000E+00
  0.00000000E+00  0.00000000E+00  0.00000000E+00
  0.00000000E+00  0.00000000E+00  0.00000000E+00
  0.00000000E+00  0.00000000E+00  0.00000000E+00
  0.00000000E+00  0.00000000E+00  0.00000000E+00
  0.00000000E+00  0.00000000E+00  0.00000000E+00
  0.00000000E+00  0.00000000E+00  0.00000000E+00
  0.00000000E+00  0.00000000E+00  0.00000000E+00
  0.00000000E+00  0.00000000E+00  0.00000000E+00
  0.00000000E+00  0.00000000E+00  0.00000000E+00
  0.00000000E+00  0.00000000E+00  0.00000000E+00
  0.00000000E+00  0.00000000E+00  0.00000000E+00
  0.00000000E+00  0.00000000E+00  0.00000000E+00
  0.00000000E+00  0.00000000E+00  0.00000000E+00
  0.00000000E+00  0.00000000E+00  0.00000000E+00
  0.00000000E+00  0.00000000E+00  0.00000000E+00
  0.00000000E+00  0.00000000E+00  0.00000000E+00
  0.00000000E+00  0.00000000E+00  0.00000000E+00
  0.00000000E+00  0.00000000E+00  0.00000000E+00
  0.00000000E+00  0.00000000E+00  0.00000000E+00
  0.00000000E+00  0.00000000E+00  0.00000000E+00
  0.00000000E+00  0.00000000E+00  0.00000000E+00
  0.00000000E+00  0.00000000E+00  0.00000000E+00
  0.00000000E+00  0.00000000E+00  0.00000000E+00
  0.00000000E+00  0.00000000E+00  0.00000000E+00
  0.00000000E+00  0.00000000E+00  0.00000000E+00
  0.00000000E+00  0.00000000E+00  0.00000000E+00
  0.00000000E+00  0.00000000E+00  0.00000000E+00
  0.00000000E+00  0.00000000E+00  0.00000000E+00
  0.00000000E+00  0.00000000E+00  0.00000000E+00
  0.00000000E+00  0.00000000E+00  0.00000000E+00
  0.00000000E+00  0.00000000E+00  0.00000000E+00
  0.00000000E+00  0.00000000E+00  0.00000000E+00
  0.00000000E+00  0.00000000E+00  0.00000000E+00
  0.00000000E+00  0.00000000E+00  0.00000000E+00
  0.00000000E+00  0.00000000E+00  0.00000000E+00
  0.00000000E+00  0.00000000E+00  0.00000000E+00
  0.00000000E+00  0.00000000E+00  0.00000000E+00
  0.00000000E+00  0.00000000E+00  0.00000000E+00
  0.00000000E+00  0.00000000E+00  0.00000000E+00
  0.00000000E+00  0.00000000E+00  0.00000000E+00
  0.00000000E+00  0.00000000E+00  0.00000000E+00
  0.00000000E+00  0.00000000E+00  0.00000000E+00
  0.00000000E+00  0.00000000E+00  0.00000000E+00
  0.00000000E+00  0.00000000E+00  0.00000000E+00
  0.00000000E+00  0.00000000E+00  0.00000000E+00
  0.00000000E+00  0.00000000E+00  0.00000000E+00
  0.00000000E+00  0.00000000E+00  0.00000000E+00
  0.00000000E+00  0.00000000E+00  0.00000000E+00
  0.00000000E+00  0.00000000E+00  0.00000000E+00
  0.00000000E+00  0.00000000E+00  0.00000000E+00
  0.00000000E+00  0.00000000E+00  0.00000000E+00
  0.00000000E+00  0.00000000E+00  0.00000000E+00
  0.00000000E+00  0.00000000E+00  0.00000000E+00
  0.00000000E+00  0.00000000E+00  0.00000000E+00
  0.00000000E+00  0.00000000E+00  0.00000000E+00
  0.00000000E+00  0.00000000E+00  0.00000000E+00
  0.00000000E+00  0.00000000E+00  0.00000000E+00
  0.00000000E+00  0.00000000E+00  0.00000000E+00
  0.00000000E+00  0.00000000E+00  0.00000000E+00
  0.00000000E+00  0.00000000E+00  0.00000000E+00
  0.00000000E+00  0.00000000E+00  0.00000000E+00
  0.00000000E+00  0.00000000E+00  0.00000000E+00
  0.00000000E+00  0.00000000E+00  0.00000000E+00
  0.00000000E+00  0.00000000E+00  0.00000000E+00
  0.00000000E+00  0.00000000E+00  0.00000000E+00
  0.00000000E+00  0.00000000E+00  0.00000000E+00
  0.00000000E+00  0.00000000E+00  0.00000000E+00
  0.00000000E+00  0.00000000E+00  0.00000000E+00
  0.00000000E+00  0.00000000E+00  0.00000000E+00
  0.00000000E+00  0.00000000E+00  0.00000000E+00
  0.00000000E+00  0.00000000E+00  0.00000000E+00
  0.00000000E+00  0.00000000E+00  0.00000000E+00
  0.00000000E+00  0.00000000E+00  0.00000000E+00
  0.00000000E+00  0.00000000E+00  0.00000000E+00
  0.00000000E+00  0.00000000E+00  0.00000000E+00
  0.00000000E+00  0.00000000E+00  0.00000000E+00
  0.00000000E+00  0.00000000E+00  0.00000000E+00
  0.00000000E+00  0.00000000E+00  0.00000000E+00
  0.00000000E+00  0.00000000E+00  0.00000000E+00
  0.00000000E+00  0.00000000E+00  0.00000000E+00
  0.00000000E+00  0.00000000E+00  0.00000000E+00
  0.00000000E+00  0.00000000E+00  0.00000000E+00
  0.00000000E+00  0.00000000E+00  0.00000000E+00
  0.00000000E+00  0.00000000E+00  0.00000000E+00
  0.00000000E+00  0.00000000E+00  0.00000000E+00
  0.00000000E+00  0.00000000E+00  0.00000000E+00
  0.00000000E+00  0.00000000E+00  0.00000000E+00
  0.00000000E+00  0.00000000E+00  0.00000000E+00
  0.00000000E+00  0.00000000E+00  0.00000000E+00
  0.00000000E+00  0.00000000E+00  0.00000000E+00
  0.00000000E+00  0.00000000E+00  0.00000000E+00
  0.00000000E+00  0.00000000E+00  0.00000000E+00
  0.00000000E+00  0.00000000E+00  0.00000000E+00
  0.00000000E+00  0.00000000E+00  0.00000000E+00
  0.00000000E+00  0.00000000E+00  0.00000000E+00
  0.00000000E+00  0.00000000E+00  0.00000000E+00
  0.00000000E+00  0.00000000E+00  0.00000000E+00
  0.00000000E+00  0.00000000E+00  0.00000000E+00
  0.00000000E+00  0.00000000E+00  0.00000000E+00
  0.00000000E+00  0.00000000E+00  0.00000000E+00
  0.00000000E+00  0.00000000E+00  0.00000000E+00
  0.00000000E+00  0.00000000E+00  0.00000000E+00
  0.00000000E+00  0.00000000E+00  0.00000000E+00
  0.00000000E+00  0.00000000E+00  0.00000000E+00
  0.00000000E+00  0.00000000E+00  0.00000000E+00
  0.00000000E+00  0.00000000E+00  0.00000000E+00
  0.00000000E+00  0.00000000E+00  0.00000000E+00
  0.00000000E+00  0.00000000E+00  0.00000000E+00
  0.00000000E+00  0.00000000E+00  0.00000000E+00
  0.00000000E+00  0.00000000E+00  0.00000000E+00
  0.00000000E+00  0.00000000E+00  0.00000000E+00
  0.00000000E+00  0.00000000E+00  0.00000000E+00
  0.00000000E+00  0.00000000E+00  0.00000000E+00
  0.00000000E+00  0.00000000E+00  0.00000000E+00
  0.00000000E+00  0.00000000E+00  0.00000000E+00
  0.00000000E+00  0.00000000E+00  0.00000000E+00
  0.00000000E+00  0.00000000E+00  0.00000000E+00
  0.00000000E+00  0.00000000E+00  0.00000000E+00
  0.00000000E+00  0.00000000E+00  0.00000000E+00
