#generated using str2pos                
    1.000000000000000     
    13.0812865182615212   -0.0013619762529671   -0.0084041202924510
    -0.0013625183365895   13.0803092150684677   -0.0049636239013862
    -0.0084047420681315   -0.0049623191992865   13.0803994783203379
   Ta   W 
    96    32
Direct
  0.1237810574392352  0.1265770176000803  0.1266287857570479
  0.5027811623517505  0.2507686633509505  0.2446221572954482
  0.3731028478208377  0.1255155998755528  0.1258564535150849
  0.7453927970647166  0.2505193673618741  0.2455251409103992
  0.8770795916247851  0.1234016071788734  0.1265894109694040
  0.2512278397499236  0.5027826433220545  0.2501062478339351
  0.1241775636646666  0.3716135981489714  0.1281521061272722
  0.4988940801319346  0.4962318558097818  0.2487472172018476
  0.7502906425643331  0.4981787269502801  0.2468461269533342
  0.0018924317004587  0.5046435664110464  0.2494333573506550
  0.8788471142712300  0.3731503918733065  0.1261476520258605
  0.2479584634239994  0.7460697430908289  0.2518397301721504
  0.3792857353371015  0.6274009178529093  0.1243457104881773
  0.6244334675850295  0.6293869727167382  0.1289668740983769
  0.0019922432470836  0.7467780046675204  0.2484915251810102
  0.2510909432571783 -0.0016504596047856  0.2513525011482705
  0.1230212704773552  0.8771006431045884  0.1235458042681046
  0.5008083432047694  0.0041632346892072  0.2478000858261227
  0.3777839006235932  0.8721075010050668  0.1264418788700657
  0.6276947158929513  0.8718586249410395  0.1301153222674417
  0.0006567657660401 -0.0020056799933416  0.2534419218703622
  0.8728979226652620  0.8767205055167149  0.1268600020675880
  0.1270668980209999  0.1292793505480918  0.3723069033895507
  0.3759002977898002  0.1279116990150340  0.3776825191280325
  0.6258456784870889  0.1237452599091752  0.3803191280335287
  0.0022361856612296  0.2492164119578485  0.5037610824527867
  0.8715274149070426  0.1246527613829379  0.3750419407968724
  0.2489526664253970  0.5012197309144774  0.4979289779768082
  0.1266689195953279  0.3710662134693107  0.3720977951849375
  0.4998417769469028  0.5041258147201114  0.4996416803734243
  0.3742289205409544  0.3707084827795294  0.3770562568109829
  0.7501727151162673  0.5037610797173423  0.5033050890746305
  0.6250874953873252  0.3721740540819733  0.3792647857609612
  0.0011103985436078  0.4993904061032686  0.5009981917992380
  0.8751108813411872  0.3724332289049836  0.3749093473531982
  0.2517016145198558  0.7477379803153086  0.4967505103584020
  0.5007381898914831  0.7468746804019433  0.5009712853352439
  0.7485853131140336  0.7470272928083084  0.5056957907564664
  0.6269056798352156  0.6278186925129187  0.3709318487852825
  0.8736609293812464  0.6274426037357652  0.3754602848502419
  0.2476608718446180  0.0002523724944830  0.5015931503418817
  0.1230646320232382  0.8736468329879419  0.3768195580458794
  0.3795997439564465  0.8762935785359209  0.3758797961850334
  0.6270374371505674  0.8769159199541582  0.3751673155793606
  0.0021647850009529  0.0028109937344141  0.5013234568416848
  0.8717625438173618  0.8744174942199442  0.3764210491183200
  0.2460213968720324  0.2494128661473442  0.7465219359335932
  0.3801061069490299  0.1264504580708819  0.6227592878463486
  0.7491444825357584  0.2525578229441651  0.7529200435583429
  0.6231968125908619  0.1234754763259303  0.6236257424416164
  0.0018798471664010  0.2497068191714323  0.7458868441026331
  0.8675571845859712  0.1236794570992817  0.6234019372750726
  0.2467061401788664  0.4989439856468284  0.7491248278245851
  0.5049777405156923  0.5011555449885476  0.7508846694853720
  0.3773664455691650  0.3715737425748146  0.6233038433770537
  0.7487218585758013  0.5033134748373971  0.7518674213750621
  0.6233164602916171  0.3702850366137455  0.6225153384791196
 -0.0017350881925166  0.5021638666741430  0.7497511467095251
  0.8712946030998692  0.3730762475538873  0.6238373966633899
  0.2472917495991675  0.7494231711479199  0.7514865521684865
  0.1243280920854404  0.6275528804868152  0.6233909781172634
  0.3746648489009884  0.6259217607352195  0.6282489713557738
  0.7495074202126860  0.7463468120598170  0.7516808483916751
 -0.0038630520097515  0.7464665633648313  0.7528486184473051
  0.2471777346542171  0.0022010736148020  0.7464692594248467
  0.1219000461418371  0.8703763156047893  0.6234524846030933
  0.3794731873853265  0.8764220544861154  0.6262319227311404
  0.6241101759271894  0.8795727297589290  0.6258693060470648
  0.0010854568679501  0.0017961457026461  0.7463449028082841
  0.8718197965915542  0.8771340878527207  0.6248597822271543
  0.2538010915637369  0.2515516063699483 -0.0000613437787364
  0.1235068258879721  0.1237202988008888  0.8782151568849432
  0.5025132998305237  0.2528346016501916  0.0024063940850422
  0.3790554771920729  0.1255319971744833  0.8702775074557825
  0.7449193971533489  0.2513779808160886  0.0008646395910179
  0.6230729434441252  0.1238907600361372  0.8688408315372363
 -0.0009756139155269  0.2509340136134890 -0.0014582323662358
  0.8733781145678420  0.1225980902665570  0.8749033285652150
  0.2497680008646814  0.5011259005452264  0.0017405940400017
  0.1247073751205152  0.3744480716613072  0.8763759668572331
  0.5039430885329431  0.4977937662774081 -0.0007949916699900
  0.3756517408627028  0.3738830203314663  0.8714533171593358
  0.7496175216947668  0.5013925834402518 -0.0009927919297775
 -0.0000842652315827  0.5048691174970356  0.0003589768279232
  0.8761477055199132  0.3739507048996581  0.8752901846324586
  0.2469039871507064  0.7474022897011674  0.0003608194129986
  0.5045236875629487  0.7504890671179811 -0.0035668145415284
  0.3766869050450867  0.6262047387551867  0.8730131444936465
  0.7508079338983065  0.7480122909742365 -0.0036348767046825
 -0.0019129366212511  0.7445403045123723  0.0006317673249656
  0.2533553366182829  0.0003175134371980 -0.0000905044071857
  0.1218414557337629  0.8773829005368445  0.8772294932194800
  0.5038853703911068  0.0001076876401226  0.0010745769678659
  0.3776547395471856  0.8749242326103686  0.8715637039450876
  0.7448245369873518 -0.0000671084787520  0.0005238230643496
  0.8745637407627873  0.8789025809156698  0.8753300968707187
  0.2533552890028565  0.2516423499887744  0.2487249173197084
  0.6264648671592757  0.1228030042961100  0.1258248197627549
 -0.0011646696037182  0.2498659936919061  0.2514078976863949
  0.3732376995705954  0.3753474314007261  0.1257097542521625
  0.6260607392535128  0.3768137641519864  0.1248207822641523
  0.1261081892521443  0.6241451488568894  0.1254859799147122
  0.4993110109198144  0.7493982002019681  0.2519078888302916
  0.7526018058320606  0.7491186505950466  0.2497105095911510
  0.8722635237972813  0.6263124545466496  0.1267510267359959
  0.7485913537388663  0.0019199659801473  0.2491922531616278
  0.2478373883560428  0.2502403434476831  0.5019674983412754
  0.4995094918010997  0.2503252123262838  0.4988485025139344
  0.7501434941198658  0.2502365985521472  0.4997902263952076
  0.1231620030873545  0.6246538109793811  0.3769566082650464
  0.3775668395665794  0.6250105609320251  0.3740443091396726
 -0.0016923451734933  0.7481302455296915  0.5002147873880266
  0.4995626766628561 -0.0010066240000145  0.4992333190619268
  0.7502135004536432 -0.0014529558836796  0.5002620090535820
  0.1263296126359393  0.1252835151235250  0.6227772833977648
  0.5008010335923764  0.2516156044563750  0.7509622896800607
  0.1262197978382511  0.3759145459057541  0.6225472337966412
  0.5044852083960838  0.7490110568361719  0.7508168464911963
  0.6234511006737711  0.6266772805027643  0.6259930005451940
  0.8759900975465088  0.6259517094640644  0.6240819484577561
  0.5005772956959347 -0.0011320327039828  0.7507676439629395
  0.7487045545678062 -0.0016002725636502  0.7516104535948136
  0.6241667381632935  0.3739564277267216  0.8724603220614364
  0.1252387205765397  0.6243853224905157  0.8742523210810966
  0.6240529114171820  0.6262618789717608  0.8751460078346294
  0.8740035301797834  0.6248341553944965  0.8754005563366917
  0.6248014156338296  0.8763560089373783  0.8713649037659408
 -0.0018846711357805 -0.0003827417756007  0.0006435138545395
 
  0.00000000E+00  0.00000000E+00  0.00000000E+00
  0.00000000E+00  0.00000000E+00  0.00000000E+00
  0.00000000E+00  0.00000000E+00  0.00000000E+00
  0.00000000E+00  0.00000000E+00  0.00000000E+00
  0.00000000E+00  0.00000000E+00  0.00000000E+00
  0.00000000E+00  0.00000000E+00  0.00000000E+00
  0.00000000E+00  0.00000000E+00  0.00000000E+00
  0.00000000E+00  0.00000000E+00  0.00000000E+00
  0.00000000E+00  0.00000000E+00  0.00000000E+00
  0.00000000E+00  0.00000000E+00  0.00000000E+00
  0.00000000E+00  0.00000000E+00  0.00000000E+00
  0.00000000E+00  0.00000000E+00  0.00000000E+00
  0.00000000E+00  0.00000000E+00  0.00000000E+00
  0.00000000E+00  0.00000000E+00  0.00000000E+00
  0.00000000E+00  0.00000000E+00  0.00000000E+00
  0.00000000E+00  0.00000000E+00  0.00000000E+00
  0.00000000E+00  0.00000000E+00  0.00000000E+00
  0.00000000E+00  0.00000000E+00  0.00000000E+00
  0.00000000E+00  0.00000000E+00  0.00000000E+00
  0.00000000E+00  0.00000000E+00  0.00000000E+00
  0.00000000E+00  0.00000000E+00  0.00000000E+00
  0.00000000E+00  0.00000000E+00  0.00000000E+00
  0.00000000E+00  0.00000000E+00  0.00000000E+00
  0.00000000E+00  0.00000000E+00  0.00000000E+00
  0.00000000E+00  0.00000000E+00  0.00000000E+00
  0.00000000E+00  0.00000000E+00  0.00000000E+00
  0.00000000E+00  0.00000000E+00  0.00000000E+00
  0.00000000E+00  0.00000000E+00  0.00000000E+00
  0.00000000E+00  0.00000000E+00  0.00000000E+00
  0.00000000E+00  0.00000000E+00  0.00000000E+00
  0.00000000E+00  0.00000000E+00  0.00000000E+00
  0.00000000E+00  0.00000000E+00  0.00000000E+00
  0.00000000E+00  0.00000000E+00  0.00000000E+00
  0.00000000E+00  0.00000000E+00  0.00000000E+00
  0.00000000E+00  0.00000000E+00  0.00000000E+00
  0.00000000E+00  0.00000000E+00  0.00000000E+00
  0.00000000E+00  0.00000000E+00  0.00000000E+00
  0.00000000E+00  0.00000000E+00  0.00000000E+00
  0.00000000E+00  0.00000000E+00  0.00000000E+00
  0.00000000E+00  0.00000000E+00  0.00000000E+00
  0.00000000E+00  0.00000000E+00  0.00000000E+00
  0.00000000E+00  0.00000000E+00  0.00000000E+00
  0.00000000E+00  0.00000000E+00  0.00000000E+00
  0.00000000E+00  0.00000000E+00  0.00000000E+00
  0.00000000E+00  0.00000000E+00  0.00000000E+00
  0.00000000E+00  0.00000000E+00  0.00000000E+00
  0.00000000E+00  0.00000000E+00  0.00000000E+00
  0.00000000E+00  0.00000000E+00  0.00000000E+00
  0.00000000E+00  0.00000000E+00  0.00000000E+00
  0.00000000E+00  0.00000000E+00  0.00000000E+00
  0.00000000E+00  0.00000000E+00  0.00000000E+00
  0.00000000E+00  0.00000000E+00  0.00000000E+00
  0.00000000E+00  0.00000000E+00  0.00000000E+00
  0.00000000E+00  0.00000000E+00  0.00000000E+00
  0.00000000E+00  0.00000000E+00  0.00000000E+00
  0.00000000E+00  0.00000000E+00  0.00000000E+00
  0.00000000E+00  0.00000000E+00  0.00000000E+00
  0.00000000E+00  0.00000000E+00  0.00000000E+00
  0.00000000E+00  0.00000000E+00  0.00000000E+00
  0.00000000E+00  0.00000000E+00  0.00000000E+00
  0.00000000E+00  0.00000000E+00  0.00000000E+00
  0.00000000E+00  0.00000000E+00  0.00000000E+00
  0.00000000E+00  0.00000000E+00  0.00000000E+00
  0.00000000E+00  0.00000000E+00  0.00000000E+00
  0.00000000E+00  0.00000000E+00  0.00000000E+00
  0.00000000E+00  0.00000000E+00  0.00000000E+00
  0.00000000E+00  0.00000000E+00  0.00000000E+00
  0.00000000E+00  0.00000000E+00  0.00000000E+00
  0.00000000E+00  0.00000000E+00  0.00000000E+00
  0.00000000E+00  0.00000000E+00  0.00000000E+00
  0.00000000E+00  0.00000000E+00  0.00000000E+00
  0.00000000E+00  0.00000000E+00  0.00000000E+00
  0.00000000E+00  0.00000000E+00  0.00000000E+00
  0.00000000E+00  0.00000000E+00  0.00000000E+00
  0.00000000E+00  0.00000000E+00  0.00000000E+00
  0.00000000E+00  0.00000000E+00  0.00000000E+00
  0.00000000E+00  0.00000000E+00  0.00000000E+00
  0.00000000E+00  0.00000000E+00  0.00000000E+00
  0.00000000E+00  0.00000000E+00  0.00000000E+00
  0.00000000E+00  0.00000000E+00  0.00000000E+00
  0.00000000E+00  0.00000000E+00  0.00000000E+00
  0.00000000E+00  0.00000000E+00  0.00000000E+00
  0.00000000E+00  0.00000000E+00  0.00000000E+00
  0.00000000E+00  0.00000000E+00  0.00000000E+00
  0.00000000E+00  0.00000000E+00  0.00000000E+00
  0.00000000E+00  0.00000000E+00  0.00000000E+00
  0.00000000E+00  0.00000000E+00  0.00000000E+00
  0.00000000E+00  0.00000000E+00  0.00000000E+00
  0.00000000E+00  0.00000000E+00  0.00000000E+00
  0.00000000E+00  0.00000000E+00  0.00000000E+00
  0.00000000E+00  0.00000000E+00  0.00000000E+00
  0.00000000E+00  0.00000000E+00  0.00000000E+00
  0.00000000E+00  0.00000000E+00  0.00000000E+00
  0.00000000E+00  0.00000000E+00  0.00000000E+00
  0.00000000E+00  0.00000000E+00  0.00000000E+00
  0.00000000E+00  0.00000000E+00  0.00000000E+00
  0.00000000E+00  0.00000000E+00  0.00000000E+00
  0.00000000E+00  0.00000000E+00  0.00000000E+00
  0.00000000E+00  0.00000000E+00  0.00000000E+00
  0.00000000E+00  0.00000000E+00  0.00000000E+00
  0.00000000E+00  0.00000000E+00  0.00000000E+00
  0.00000000E+00  0.00000000E+00  0.00000000E+00
  0.00000000E+00  0.00000000E+00  0.00000000E+00
  0.00000000E+00  0.00000000E+00  0.00000000E+00
  0.00000000E+00  0.00000000E+00  0.00000000E+00
  0.00000000E+00  0.00000000E+00  0.00000000E+00
  0.00000000E+00  0.00000000E+00  0.00000000E+00
  0.00000000E+00  0.00000000E+00  0.00000000E+00
  0.00000000E+00  0.00000000E+00  0.00000000E+00
  0.00000000E+00  0.00000000E+00  0.00000000E+00
  0.00000000E+00  0.00000000E+00  0.00000000E+00
  0.00000000E+00  0.00000000E+00  0.00000000E+00
  0.00000000E+00  0.00000000E+00  0.00000000E+00
  0.00000000E+00  0.00000000E+00  0.00000000E+00
  0.00000000E+00  0.00000000E+00  0.00000000E+00
  0.00000000E+00  0.00000000E+00  0.00000000E+00
  0.00000000E+00  0.00000000E+00  0.00000000E+00
  0.00000000E+00  0.00000000E+00  0.00000000E+00
  0.00000000E+00  0.00000000E+00  0.00000000E+00
  0.00000000E+00  0.00000000E+00  0.00000000E+00
  0.00000000E+00  0.00000000E+00  0.00000000E+00
  0.00000000E+00  0.00000000E+00  0.00000000E+00
  0.00000000E+00  0.00000000E+00  0.00000000E+00
  0.00000000E+00  0.00000000E+00  0.00000000E+00
  0.00000000E+00  0.00000000E+00  0.00000000E+00
  0.00000000E+00  0.00000000E+00  0.00000000E+00
  0.00000000E+00  0.00000000E+00  0.00000000E+00
  0.00000000E+00  0.00000000E+00  0.00000000E+00
