#generated using str2pos                
    1.000000000000000     
    13.0335678420576162   -0.0165738514129068   -0.0013751810237933
    -0.0165686606565984   13.0079908571856979    0.0068718908529634
    -0.0013776999828902    0.0068721682768350   13.0083590022519964
   Ta   W 
    83    45
Direct
  0.2474979047076154  0.2499027698614940  0.2506427184235477
  0.1270589465419756  0.1241022987263833  0.1277940132684789
  0.3760644256746623  0.1225341472968686  0.1279799308632704
  0.7497200445385870  0.2510855249798017  0.2524724574908752
 -0.0006633079497359  0.2525045262672818  0.2507755054725114
  0.8747349575083019  0.1260212493084253  0.1244776900960742
  0.2467647389901714  0.5004534050603984  0.2506744793732170
  0.3774952047874649  0.3760297171625545  0.1282150174217894
  0.7501081525045449  0.4984395000192935  0.2510165857650887
  0.6249885074652460  0.3749257279348396  0.1250301364212562
 -0.0005290872006115  0.4981542516246341  0.2503134701723788
  0.2471096865050446  0.7502969618437062  0.2511809994071031
  0.1258863465027530  0.6238246242153259  0.1193757026551246
  0.5024175069479180  0.7489009095807397  0.2507683316442497
  0.3744317675149184  0.6249626134454819  0.1222872846182116
  0.7449799045912151  0.7478944473501247  0.2513621976951813
  0.0035109331307828  0.7511643531942874  0.2493546556340822
  0.8736749478124898  0.6243980424338528  0.1211742302237153
  0.5048075805966583 -0.0013885899345655  0.2529881908008471
  0.3763727663375958  0.8744429739005505  0.1224416979550818
  0.7457117819807073  0.0010512983228872  0.2505361644379194
  0.6234385773847865  0.8726075073878735  0.1198390686430113
  0.0025791826111965 -0.0014372075897442  0.2520012350569313
  0.8719413339523222  0.8740919809224441  0.1240696351243147
  0.2463760598968337  0.2467654959998292  0.5016471834219032
  0.3758313686741482  0.1240712654751461  0.3752242049083079
  0.7519889519693518  0.2496955578406964  0.4973309158587541
 -0.0002853366038356  0.2474081038411179  0.5004917187290253
  0.8742864722428899  0.1213274630408475  0.3765061729019661
  0.2486835687418014  0.5008594366321333  0.4974567637995178
  0.1258753491154868  0.3740607129069297  0.3765224978439807
  0.5024061944683296  0.4999605254855508  0.4984382384113925
  0.3782871184018574  0.3725421225278330  0.3738392657954801
  0.7484636251530212  0.4989589706198322  0.4961796087212366
 -0.0008995951650934  0.4997740212507761  0.4959698933634792
  0.3759114715606785  0.6257186472275583  0.3755416762239573
  0.7458282403438775  0.7511281932820414  0.4990523589589180
  0.8759551351578616  0.6284058134725655  0.3757321413000688
  0.5039014674117822 -0.0024872997230888  0.4979928920093596
  0.3726943842887990  0.8744933997714445  0.3779377971195560
  0.0035232643907440  0.0019507167630172  0.5021750644516468
  0.8752197338438683  0.8752819067783930  0.3780320777284200
  0.2498686696444570  0.2475805900750938  0.7521013230382715
  0.4971315133345991  0.2521570365923657  0.7530123777767728
  0.3780689389312188  0.1218230016212032  0.6231515506152280
  0.6261519219276309  0.1238504371747107  0.6268479361879181
  0.1228266386657821  0.3779095921693335  0.6299936280941569
  0.5003931966347007  0.4992539670480112  0.7535181913004090
  0.3743425352369404  0.3748324773009758  0.6240774090899484
  0.7461580616779568  0.5039018322170861  0.7507313804776999
  0.6257907235323176  0.3709368974575048  0.6258271514135699
  0.8761370999865304  0.3749364510726225  0.6299402372555714
  0.1255876891159620  0.6264148104190712  0.6269563877273799
  0.3726659654055113  0.6288237437940016  0.6260760132120043
  0.7472330162675025  0.7498436984725168  0.7482400241229967
  0.6207444403607977  0.6275120904822458  0.6245071523003857
 -0.0006091090077774  0.7544101713720642  0.7491303318609710
  0.8776759907126656  0.6257750671810276  0.6243536115909670
  0.2462081126562104  0.0021828875408415  0.7485289775259405
  0.3753803861076309  0.8727459656541982  0.6250384229715070
  0.0027777621492738  0.0022300464143284  0.7470255439101838
  0.8730391197713810  0.8772137410155163  0.6224782883041503
  0.2496403138001766  0.2504779751971293 -0.0012940191392125
  0.4992364822951384  0.2505605385090818 -0.0000857135488852
  0.3793168162083832  0.1203098985840619  0.8756886961068090
  0.6271281230218079  0.1235181406653870  0.8728489236629481
  0.0026363798353213  0.2511617860363844  0.0020959539210525
  0.8720196931188493  0.1289129294890825  0.8735726561409073
  0.1223880539532759  0.3805384454789427  0.8735404387012946
  0.5010631496283378  0.5002207331183540 -0.0021387208022901
  0.6309590782441497  0.3731922950841803  0.8775413866233410
  0.8758747583296199  0.3756212865620212  0.8746888734865994
  0.1274349865792045  0.6232459212402873  0.8740375063114819
  0.3721798728414834  0.6283541677493985  0.8748450128480684
  0.0008121581171832  0.7531796000019777 -0.0001336156643363
  0.8751002944621318  0.6232994310948631  0.8768170233471039
  0.2475396051045663  0.0007728521309997 -0.0011163639587012
  0.1286585569608750  0.8715143631515840  0.8736135900508953
  0.3777376591480500  0.8722387149987852  0.8737455783783951
  0.7494930250498280  0.0017175207568525  0.0017793340223498
  0.6218586437067561  0.8758218216036375  0.8744652418183926
  0.0033851826704359  0.0006571192573625 -0.0012361929269313
  0.8706458021338302  0.8769055879803251  0.8735799133087808
  0.5038215364736348  0.2475792793973656  0.2503275277535583
  0.6241326950107684  0.1265471526478357  0.1237634767988113
  0.1256057797100406  0.3773753077635782  0.1222016292214226
  0.5032266798935005  0.5013166862046292  0.2499375192107980
  0.8731443098277198  0.3764067853568851  0.1212940224188540
  0.6246270108082690  0.6234258535948566  0.1225400152539331
  0.2490386171276852 -0.0022102386780622  0.2515066262698505
  0.1280617543653127  0.8747518278417628  0.1251502651466848
  0.1278526910684746  0.1218475228152535  0.3751646944971802
  0.5026984935049780  0.2482572156404799  0.4985751006910266
  0.6245643584109404  0.1256481578858358  0.3770669906442995
  0.6216583224325456  0.3731784155125945  0.3731921098235069
  0.8744108399160924  0.3747637381233569  0.3752451722581676
  0.2472925335161693  0.7511306030843090  0.4983006136532708
  0.1247824426618216  0.6277835279686281  0.3770854847775607
  0.5017575604480964  0.7507050391089163  0.4983872450457649
  0.6224758423057980  0.6239178876329413  0.3746165489646134
  0.0025715626810912  0.7521663604942109  0.4992880886461631
  0.2474444287145302 -0.0009271368450439  0.5005816485915217
  0.1272282505503301  0.8752551557089991  0.3774017344041741
  0.7485906955571281  0.0000863033908128  0.4995992508908178
  0.6246472587292912  0.8743667062516851  0.3772711457782712
  0.1250690122211393  0.1253462409771462  0.6250080300432921
  0.7513953508361292  0.2497524388804617  0.7486949127379413
  0.0014657161557313  0.2469676556028595  0.7499491955017807
  0.8725468886081935  0.1255430308547550  0.6271054343751971
  0.2523312203273577  0.4992385193436202  0.7507410044082543
 -0.0011777727878452  0.5018161929752825  0.7500241316919926
  0.2490942506707745  0.7521468215465474  0.7478142080921941
  0.5013631867362092  0.7491808640846962  0.7496999876741458
  0.1275969870370667  0.8731531744197711  0.6222433176875017
  0.5007319575120367 -0.0017237688165505  0.7475178501670433
  0.7507305023063403 -0.0004540659795958  0.7473128707001417
  0.6232035513506780  0.8767066619355736  0.6264837330779112
  0.1237422178671244  0.1276692585902867  0.8745968557583810
  0.7509282575557726  0.2505037658734962  0.0036435939181650
  0.2511450844203747  0.4975722248633844  0.0007325354703286
  0.3724984647233243  0.3777142036054066  0.8761178239414728
  0.7486017710332320  0.5007862736308759  0.0015951141876617
 -0.0005945832797798  0.4984288466069184  0.0026424382685272
  0.2495094618129348  0.7511403788465736  0.0010773553525953
  0.5014405022785945  0.7467881309414117 -0.0001589211503756
  0.7474977229337149  0.7482893650932063 -0.0007772018218151
  0.6235360896741691  0.6278301489811433  0.8764836997680083
  0.5008789106428031  0.0007977659679240  0.0017218077340794
 
  0.00000000E+00  0.00000000E+00  0.00000000E+00
  0.00000000E+00  0.00000000E+00  0.00000000E+00
  0.00000000E+00  0.00000000E+00  0.00000000E+00
  0.00000000E+00  0.00000000E+00  0.00000000E+00
  0.00000000E+00  0.00000000E+00  0.00000000E+00
  0.00000000E+00  0.00000000E+00  0.00000000E+00
  0.00000000E+00  0.00000000E+00  0.00000000E+00
  0.00000000E+00  0.00000000E+00  0.00000000E+00
  0.00000000E+00  0.00000000E+00  0.00000000E+00
  0.00000000E+00  0.00000000E+00  0.00000000E+00
  0.00000000E+00  0.00000000E+00  0.00000000E+00
  0.00000000E+00  0.00000000E+00  0.00000000E+00
  0.00000000E+00  0.00000000E+00  0.00000000E+00
  0.00000000E+00  0.00000000E+00  0.00000000E+00
  0.00000000E+00  0.00000000E+00  0.00000000E+00
  0.00000000E+00  0.00000000E+00  0.00000000E+00
  0.00000000E+00  0.00000000E+00  0.00000000E+00
  0.00000000E+00  0.00000000E+00  0.00000000E+00
  0.00000000E+00  0.00000000E+00  0.00000000E+00
  0.00000000E+00  0.00000000E+00  0.00000000E+00
  0.00000000E+00  0.00000000E+00  0.00000000E+00
  0.00000000E+00  0.00000000E+00  0.00000000E+00
  0.00000000E+00  0.00000000E+00  0.00000000E+00
  0.00000000E+00  0.00000000E+00  0.00000000E+00
  0.00000000E+00  0.00000000E+00  0.00000000E+00
  0.00000000E+00  0.00000000E+00  0.00000000E+00
  0.00000000E+00  0.00000000E+00  0.00000000E+00
  0.00000000E+00  0.00000000E+00  0.00000000E+00
  0.00000000E+00  0.00000000E+00  0.00000000E+00
  0.00000000E+00  0.00000000E+00  0.00000000E+00
  0.00000000E+00  0.00000000E+00  0.00000000E+00
  0.00000000E+00  0.00000000E+00  0.00000000E+00
  0.00000000E+00  0.00000000E+00  0.00000000E+00
  0.00000000E+00  0.00000000E+00  0.00000000E+00
  0.00000000E+00  0.00000000E+00  0.00000000E+00
  0.00000000E+00  0.00000000E+00  0.00000000E+00
  0.00000000E+00  0.00000000E+00  0.00000000E+00
  0.00000000E+00  0.00000000E+00  0.00000000E+00
  0.00000000E+00  0.00000000E+00  0.00000000E+00
  0.00000000E+00  0.00000000E+00  0.00000000E+00
  0.00000000E+00  0.00000000E+00  0.00000000E+00
  0.00000000E+00  0.00000000E+00  0.00000000E+00
  0.00000000E+00  0.00000000E+00  0.00000000E+00
  0.00000000E+00  0.00000000E+00  0.00000000E+00
  0.00000000E+00  0.00000000E+00  0.00000000E+00
  0.00000000E+00  0.00000000E+00  0.00000000E+00
  0.00000000E+00  0.00000000E+00  0.00000000E+00
  0.00000000E+00  0.00000000E+00  0.00000000E+00
  0.00000000E+00  0.00000000E+00  0.00000000E+00
  0.00000000E+00  0.00000000E+00  0.00000000E+00
  0.00000000E+00  0.00000000E+00  0.00000000E+00
  0.00000000E+00  0.00000000E+00  0.00000000E+00
  0.00000000E+00  0.00000000E+00  0.00000000E+00
  0.00000000E+00  0.00000000E+00  0.00000000E+00
  0.00000000E+00  0.00000000E+00  0.00000000E+00
  0.00000000E+00  0.00000000E+00  0.00000000E+00
  0.00000000E+00  0.00000000E+00  0.00000000E+00
  0.00000000E+00  0.00000000E+00  0.00000000E+00
  0.00000000E+00  0.00000000E+00  0.00000000E+00
  0.00000000E+00  0.00000000E+00  0.00000000E+00
  0.00000000E+00  0.00000000E+00  0.00000000E+00
  0.00000000E+00  0.00000000E+00  0.00000000E+00
  0.00000000E+00  0.00000000E+00  0.00000000E+00
  0.00000000E+00  0.00000000E+00  0.00000000E+00
  0.00000000E+00  0.00000000E+00  0.00000000E+00
  0.00000000E+00  0.00000000E+00  0.00000000E+00
  0.00000000E+00  0.00000000E+00  0.00000000E+00
  0.00000000E+00  0.00000000E+00  0.00000000E+00
  0.00000000E+00  0.00000000E+00  0.00000000E+00
  0.00000000E+00  0.00000000E+00  0.00000000E+00
  0.00000000E+00  0.00000000E+00  0.00000000E+00
  0.00000000E+00  0.00000000E+00  0.00000000E+00
  0.00000000E+00  0.00000000E+00  0.00000000E+00
  0.00000000E+00  0.00000000E+00  0.00000000E+00
  0.00000000E+00  0.00000000E+00  0.00000000E+00
  0.00000000E+00  0.00000000E+00  0.00000000E+00
  0.00000000E+00  0.00000000E+00  0.00000000E+00
  0.00000000E+00  0.00000000E+00  0.00000000E+00
  0.00000000E+00  0.00000000E+00  0.00000000E+00
  0.00000000E+00  0.00000000E+00  0.00000000E+00
  0.00000000E+00  0.00000000E+00  0.00000000E+00
  0.00000000E+00  0.00000000E+00  0.00000000E+00
  0.00000000E+00  0.00000000E+00  0.00000000E+00
  0.00000000E+00  0.00000000E+00  0.00000000E+00
  0.00000000E+00  0.00000000E+00  0.00000000E+00
  0.00000000E+00  0.00000000E+00  0.00000000E+00
  0.00000000E+00  0.00000000E+00  0.00000000E+00
  0.00000000E+00  0.00000000E+00  0.00000000E+00
  0.00000000E+00  0.00000000E+00  0.00000000E+00
  0.00000000E+00  0.00000000E+00  0.00000000E+00
  0.00000000E+00  0.00000000E+00  0.00000000E+00
  0.00000000E+00  0.00000000E+00  0.00000000E+00
  0.00000000E+00  0.00000000E+00  0.00000000E+00
  0.00000000E+00  0.00000000E+00  0.00000000E+00
  0.00000000E+00  0.00000000E+00  0.00000000E+00
  0.00000000E+00  0.00000000E+00  0.00000000E+00
  0.00000000E+00  0.00000000E+00  0.00000000E+00
  0.00000000E+00  0.00000000E+00  0.00000000E+00
  0.00000000E+00  0.00000000E+00  0.00000000E+00
  0.00000000E+00  0.00000000E+00  0.00000000E+00
  0.00000000E+00  0.00000000E+00  0.00000000E+00
  0.00000000E+00  0.00000000E+00  0.00000000E+00
  0.00000000E+00  0.00000000E+00  0.00000000E+00
  0.00000000E+00  0.00000000E+00  0.00000000E+00
  0.00000000E+00  0.00000000E+00  0.00000000E+00
  0.00000000E+00  0.00000000E+00  0.00000000E+00
  0.00000000E+00  0.00000000E+00  0.00000000E+00
  0.00000000E+00  0.00000000E+00  0.00000000E+00
  0.00000000E+00  0.00000000E+00  0.00000000E+00
  0.00000000E+00  0.00000000E+00  0.00000000E+00
  0.00000000E+00  0.00000000E+00  0.00000000E+00
  0.00000000E+00  0.00000000E+00  0.00000000E+00
  0.00000000E+00  0.00000000E+00  0.00000000E+00
  0.00000000E+00  0.00000000E+00  0.00000000E+00
  0.00000000E+00  0.00000000E+00  0.00000000E+00
  0.00000000E+00  0.00000000E+00  0.00000000E+00
  0.00000000E+00  0.00000000E+00  0.00000000E+00
  0.00000000E+00  0.00000000E+00  0.00000000E+00
  0.00000000E+00  0.00000000E+00  0.00000000E+00
  0.00000000E+00  0.00000000E+00  0.00000000E+00
  0.00000000E+00  0.00000000E+00  0.00000000E+00
  0.00000000E+00  0.00000000E+00  0.00000000E+00
  0.00000000E+00  0.00000000E+00  0.00000000E+00
  0.00000000E+00  0.00000000E+00  0.00000000E+00
  0.00000000E+00  0.00000000E+00  0.00000000E+00
  0.00000000E+00  0.00000000E+00  0.00000000E+00
  0.00000000E+00  0.00000000E+00  0.00000000E+00
  0.00000000E+00  0.00000000E+00  0.00000000E+00
