#generated using str2pos
1
12.76 0 0
0 12.76 0
0 0 12.76
Ta W 
83 45 
Cartesian
3.19 3.19 3.19
1.595 1.595 1.595
4.785 1.595 1.595
9.57 3.19 3.19
12.76 3.19 3.19
11.165 1.595 1.595
3.19 6.38 3.19
4.785 4.785 1.595
9.57 6.38 3.19
7.975 4.785 1.595
12.76 6.38 3.19
3.19 9.57 3.19
1.595 7.975 1.595
6.38 9.57 3.19
4.785 7.975 1.595
9.57 9.57 3.19
12.76 9.57 3.19
11.165 7.975 1.595
6.38 12.76 3.19
4.785 11.165 1.595
9.57 12.76 3.19
7.975 11.165 1.595
12.76 12.76 3.19
11.165 11.165 1.595
3.19 3.19 6.38
4.785 1.595 4.785
9.57 3.19 6.38
12.76 3.19 6.38
11.165 1.595 4.785
3.19 6.38 6.38
1.595 4.785 4.785
6.38 6.38 6.38
4.785 4.785 4.785
9.57 6.38 6.38
12.76 6.38 6.38
4.785 7.975 4.785
9.57 9.57 6.38
11.165 7.975 4.785
6.38 12.76 6.38
4.785 11.165 4.785
12.76 12.76 6.38
11.165 11.165 4.785
3.19 3.19 9.57
6.38 3.19 9.57
4.785 1.595 7.975
7.975 1.595 7.975
1.595 4.785 7.975
6.38 6.38 9.57
4.785 4.785 7.975
9.57 6.38 9.57
7.975 4.785 7.975
11.165 4.785 7.975
1.595 7.975 7.975
4.785 7.975 7.975
9.57 9.57 9.57
7.975 7.975 7.975
12.76 9.57 9.57
11.165 7.975 7.975
3.19 12.76 9.57
4.785 11.165 7.975
12.76 12.76 9.57
11.165 11.165 7.975
3.19 3.19 12.76
6.38 3.19 12.76
4.785 1.595 11.165
7.975 1.595 11.165
12.76 3.19 12.76
11.165 1.595 11.165
1.595 4.785 11.165
6.38 6.38 12.76
7.975 4.785 11.165
11.165 4.785 11.165
1.595 7.975 11.165
4.785 7.975 11.165
12.76 9.57 12.76
11.165 7.975 11.165
3.19 12.76 12.76
1.595 11.165 11.165
4.785 11.165 11.165
9.57 12.76 12.76
7.975 11.165 11.165
12.76 12.76 12.76
11.165 11.165 11.165
6.38 3.19 3.19
7.975 1.595 1.595
1.595 4.785 1.595
6.38 6.38 3.19
11.165 4.785 1.595
7.975 7.975 1.595
3.19 12.76 3.19
1.595 11.165 1.595
1.595 1.595 4.785
6.38 3.19 6.38
7.975 1.595 4.785
7.975 4.785 4.785
11.165 4.785 4.785
3.19 9.57 6.38
1.595 7.975 4.785
6.38 9.57 6.38
7.975 7.975 4.785
12.76 9.57 6.38
3.19 12.76 6.38
1.595 11.165 4.785
9.57 12.76 6.38
7.975 11.165 4.785
1.595 1.595 7.975
9.57 3.19 9.57
12.76 3.19 9.57
11.165 1.595 7.975
3.19 6.38 9.57
12.76 6.38 9.57
3.19 9.57 9.57
6.38 9.57 9.57
1.595 11.165 7.975
6.38 12.76 9.57
9.57 12.76 9.57
7.975 11.165 7.975
1.595 1.595 11.165
9.57 3.19 12.76
3.19 6.38 12.76
4.785 4.785 11.165
9.57 6.38 12.76
12.76 6.38 12.76
3.19 9.57 12.76
6.38 9.57 12.76
9.57 9.57 12.76
7.975 7.975 11.165
6.38 12.76 12.76

