#BCC aalvarado POSCAR generator         
    12.76000000000000     
     1.0279782850968799   -0.0006170726824417   -0.0002682802680351
    -0.0006173357361942    1.0272570662853018    0.0003027035611115
    -0.0002684024362787    0.0003027868103256    1.0267526517170460
   Ta   W 
   102    26
Direct
  0.5017219326359548  0.4970363959306927  0.5016719242777490
  0.6231580586435642  0.6235084638018272  0.6255479906325205
  0.6244514623560518  0.6258361006953489  0.3760153716913587
  0.3750607557377832  0.3746196232275552  0.3766867528043891
  0.3763482389985525  0.3719203209301422  0.6293431498889019
  0.3754126226303454  0.6252431858899200  0.3747424746063330
  0.7487907424133872  0.7458316058175234  0.7500223044122337
  0.7538013071569811  0.7457673222921700  0.5001379123525100
  0.7494889402210348  0.4983357590837341  0.4993373422313708
  0.7490577492356058  0.4996806412565979  0.7468073492036883
  0.4964568388432315  0.7485207061308252  0.5032658031351346
  0.4967578639733863  0.7465541325692613  0.7517446248575341
  0.7530920154886172  0.7479218699703747  0.2519683479277959
  0.7511656265712223  0.4989929134817216  0.2526175381842566
  0.5019895988986306  0.4982520793448454  0.2513984060019943
  0.4987780852635755  0.7507269468503998  0.2494358315230286
  0.5005614851233816  0.2515915175460161  0.2516239733093554
  0.7488746531777534  0.2507933483226039  0.5020638913360719
  0.5049423936964771  0.2511609131312159  0.5002174472209878
  0.2507339105367337  0.2512836622610219  0.2499704927443618
  0.2493902645328112  0.2512072878136706  0.4979691100579663
  0.2504453462383538  0.4996749839861847  0.2495261442625687
  0.2525510635101875  0.5004944658990643  0.5026342497561520
  0.7500874260184165  0.2498157935907201  0.7450772965272027
  0.2522956343974392  0.5036039474119045  0.7510025367534656
  0.2461155572953274  0.7508272426987503  0.2531769252631146
  0.2489155491008596  0.7483316372181119  0.5006839571512888
  0.2530843111650445  0.7457412571386748  0.7492596536999805
  0.8742289488678868  0.8744409490328185  0.8743404891084245
  0.8745261628926067  0.8736090419818680  0.6244172901900735
  0.8731916281191946  0.6218057357792455  0.8779156216850907
  0.6241357837422583  0.8723776074325187  0.6251509033488152
  0.6238318695854733  0.8756837386689456  0.8732289582764563
  0.8764811333103124  0.8775559048850571  0.3738151385821278
  0.6254305120653408  0.8739017207662457  0.3767367815395444
  0.8782590949768467  0.3736912185567354  0.3726525725611156
  0.8772823728300888  0.3769826859011376  0.6220410252918384
  0.8739280418496537  0.3755692932899922  0.8770681637858704
  0.6240622844726775  0.3758863347478917  0.8735102504010007
  0.3773046668157720  0.3727920419570225  0.8697990280075595
  0.3719283481695042  0.8782702600316117  0.3766423559115277
  0.3722900727361613  0.8793892788757510  0.6258404340580311
  0.3710155087212180  0.8781604855195432  0.8756707904344712
  0.8773457470394798  0.8766124857347481  0.1272823699615373
  0.8744839021097000  0.6214438512871654  0.1246008607852946
  0.6276050160455012  0.6225919767577058  0.1238627163142150
  0.6250883665716266  0.8741263550086779  0.1249118633745852
  0.6288549523721830  0.3764542380225885  0.1232228028192082
  0.3758250460043249  0.3758512738313281  0.1242997084391807
  0.3731027779713414  0.6278430103957668  0.1247229681644756
  0.3696110653191495  0.8762839300518571  0.1228156661577030
  0.8786519069894595  0.1284508085262966  0.1274801399931292
  0.6277792951159861  0.1285716012997792  0.1266218528654871
  0.8769796555867725  0.1276889232160136  0.3690755285552660
  0.6282463277839154  0.1264102756292292  0.3726076432005868
  0.3713810215245842  0.1218663131003677  0.1248023659274445
  0.3721073161703595  0.1220794852634433  0.3761775976764662
  0.3723324154427324  0.1256845365134058  0.6277339047822856
  0.1229816852518551  0.1238907805802510  0.1265762914258534
  0.1241707078372795  0.1233016089025269  0.3723930856075587
  0.1203387450587748  0.3731861349131262  0.1262128531697937
  0.1198332531694630  0.3757268312181662  0.3736977034977603
  0.1308758574780142  0.1232560828089834  0.6261235660202540
  0.1255302468565480  0.3741345799456384  0.6253924702527226
  0.1236546112008090  0.6248466546810197  0.1259479969657861
  0.1222565668405303  0.6203986803070720  0.3756968809226077
  0.1231226450211586  0.6228469032684095  0.6232248120291491
  0.8770093155578980  0.1284633512290365  0.8783127344437801
  0.6229935963007392  0.1286976106713111  0.8742912999965301
  0.3722913620175873  0.1253098487962240  0.8721508894893245
  0.1279482974051411  0.1249777509854007  0.8753565928148258
  0.1247274933169444  0.3714376070883568  0.8745735542073092
  0.1247534141884270  0.6268155563888936  0.8770669604376173
  0.1268137125681054  0.8778308754296837  0.1249216890320851
  0.1282228190485302  0.8776170349183448  0.6258473766638980
  0.1293599661334066  0.8764046450719910  0.8758437774299357
 -0.0008110775987048 -0.0008240697658625 -0.0010891979802655
 -0.0026201909425226  0.0015364450810300  0.7486480271966357
 -0.0007510553166506  0.7485262833799103  0.7484086159367324
 -0.0006155750945352  0.7504751922758197  0.0012728051862150
  0.7485013233267468  0.7493815669142305 -0.0016487444121394
  0.7501360981980242  0.0044272848246015  0.7466216917341020
  0.7504671005721751  0.0013477650734724 -0.0000162785327667
 -0.0010784834851057  0.0006670548295405  0.5010642472356036
 -0.0005614594612292  0.7496809167772381  0.4983893444215624
  0.7512901378675927  0.0040620643402419  0.5022204803568336
 -0.0014773353022831  0.5007919636921363  0.7497941096925606
 -0.0000567400396725  0.4992886787183843  0.0007614303629032
  0.4986038418474932  0.5028668535445691 -0.0034161294181524
  0.4997293337413929  0.7471184876496042 -0.0039148973488911
  0.5031359622300353  0.0034687816118625  0.5021729158360523
  0.5026299211277198  0.0014958439780598  0.7489197884876047
  0.5007654473035286  0.0014602233730240 -0.0003849407648699
  0.0005365380583975  0.7496961909022851  0.2531349128622775
  0.7498794983953255 -0.0002790570066329  0.2499125895999727
  0.5005194967421175  0.0005397859986114  0.2497129383925717
 -0.0011630887851298  0.2464779776924121  0.5021412023612142
 -0.0026255330860752  0.2479562131827593  0.7469197574455896
  0.7507754671951665  0.2513571309777677  0.0002890520655515
  0.4990991620874355  0.2505097464859845  0.0008109923250743
  0.2510598082286357  0.2515071942130153  0.0022594305015454
  0.2514661403146351  0.5001108372628312 -0.0021092476537170
  0.2502626315468104  0.7486162681467419 -0.0009722899744210
  0.2479430301955668 -0.0010512780612309  0.4989220048989894
  0.2500710335026744 -0.0007919554893204  0.7504004154104473
  0.2491226995506770  0.0012734238378148  0.0002656956131403
  0.6287323017433880  0.3740938533053811  0.3736944593409690
  0.6231112041170255  0.3761369136991695  0.6273627169389583
  0.3764148095379093  0.6228137943323291  0.6261289592497360
  0.5005590578016405  0.5015793687028609  0.7497532742277240
  0.7507034521225034  0.2536920242616800  0.2502011853649836
  0.5033829333956776  0.2502418941207410  0.7471990808506435
  0.2497096831570341  0.2509513804682741  0.7502595035400167
  0.8755120465721598  0.6226145416356815  0.6236270961628561
  0.6250408928256342  0.6209693612844833  0.8737907084187702
  0.8771732634479047  0.6209897632914592  0.3742254590429065
  0.3746408320425167  0.6252366581322730  0.8754816977048164
  0.8759183518876705  0.3740084359562048  0.1263840258079817
  0.8760334240352697  0.1258186847107729  0.6235664596688376
  0.6230830206721948  0.1269855446397591  0.6254805897667857
  0.1254778992175548  0.8781326691617903  0.3748132277785835
 -0.0025644493981737  0.5009586550653610  0.5002521737601880
  0.7494341977172196  0.4992054013407544 -0.0003967123302015
  0.0014764966580387 -0.0015680717961352  0.2513175277632034
 -0.0028465478723302  0.4999137718679954  0.2493383481423402
 -0.0004731471813508  0.2510888042150883  0.2493977280686161
 -0.0005786551069045  0.2511029927313594  0.0006924165273454
  0.2481198293731444 -0.0011522791282624  0.2513122239470697
 
  0.00000000E+00  0.00000000E+00  0.00000000E+00
  0.00000000E+00  0.00000000E+00  0.00000000E+00
  0.00000000E+00  0.00000000E+00  0.00000000E+00
  0.00000000E+00  0.00000000E+00  0.00000000E+00
  0.00000000E+00  0.00000000E+00  0.00000000E+00
  0.00000000E+00  0.00000000E+00  0.00000000E+00
  0.00000000E+00  0.00000000E+00  0.00000000E+00
  0.00000000E+00  0.00000000E+00  0.00000000E+00
  0.00000000E+00  0.00000000E+00  0.00000000E+00
  0.00000000E+00  0.00000000E+00  0.00000000E+00
  0.00000000E+00  0.00000000E+00  0.00000000E+00
  0.00000000E+00  0.00000000E+00  0.00000000E+00
  0.00000000E+00  0.00000000E+00  0.00000000E+00
  0.00000000E+00  0.00000000E+00  0.00000000E+00
  0.00000000E+00  0.00000000E+00  0.00000000E+00
  0.00000000E+00  0.00000000E+00  0.00000000E+00
  0.00000000E+00  0.00000000E+00  0.00000000E+00
  0.00000000E+00  0.00000000E+00  0.00000000E+00
  0.00000000E+00  0.00000000E+00  0.00000000E+00
  0.00000000E+00  0.00000000E+00  0.00000000E+00
  0.00000000E+00  0.00000000E+00  0.00000000E+00
  0.00000000E+00  0.00000000E+00  0.00000000E+00
  0.00000000E+00  0.00000000E+00  0.00000000E+00
  0.00000000E+00  0.00000000E+00  0.00000000E+00
  0.00000000E+00  0.00000000E+00  0.00000000E+00
  0.00000000E+00  0.00000000E+00  0.00000000E+00
  0.00000000E+00  0.00000000E+00  0.00000000E+00
  0.00000000E+00  0.00000000E+00  0.00000000E+00
  0.00000000E+00  0.00000000E+00  0.00000000E+00
  0.00000000E+00  0.00000000E+00  0.00000000E+00
  0.00000000E+00  0.00000000E+00  0.00000000E+00
  0.00000000E+00  0.00000000E+00  0.00000000E+00
  0.00000000E+00  0.00000000E+00  0.00000000E+00
  0.00000000E+00  0.00000000E+00  0.00000000E+00
  0.00000000E+00  0.00000000E+00  0.00000000E+00
  0.00000000E+00  0.00000000E+00  0.00000000E+00
  0.00000000E+00  0.00000000E+00  0.00000000E+00
  0.00000000E+00  0.00000000E+00  0.00000000E+00
  0.00000000E+00  0.00000000E+00  0.00000000E+00
  0.00000000E+00  0.00000000E+00  0.00000000E+00
  0.00000000E+00  0.00000000E+00  0.00000000E+00
  0.00000000E+00  0.00000000E+00  0.00000000E+00
  0.00000000E+00  0.00000000E+00  0.00000000E+00
  0.00000000E+00  0.00000000E+00  0.00000000E+00
  0.00000000E+00  0.00000000E+00  0.00000000E+00
  0.00000000E+00  0.00000000E+00  0.00000000E+00
  0.00000000E+00  0.00000000E+00  0.00000000E+00
  0.00000000E+00  0.00000000E+00  0.00000000E+00
  0.00000000E+00  0.00000000E+00  0.00000000E+00
  0.00000000E+00  0.00000000E+00  0.00000000E+00
  0.00000000E+00  0.00000000E+00  0.00000000E+00
  0.00000000E+00  0.00000000E+00  0.00000000E+00
  0.00000000E+00  0.00000000E+00  0.00000000E+00
  0.00000000E+00  0.00000000E+00  0.00000000E+00
  0.00000000E+00  0.00000000E+00  0.00000000E+00
  0.00000000E+00  0.00000000E+00  0.00000000E+00
  0.00000000E+00  0.00000000E+00  0.00000000E+00
  0.00000000E+00  0.00000000E+00  0.00000000E+00
  0.00000000E+00  0.00000000E+00  0.00000000E+00
  0.00000000E+00  0.00000000E+00  0.00000000E+00
  0.00000000E+00  0.00000000E+00  0.00000000E+00
  0.00000000E+00  0.00000000E+00  0.00000000E+00
  0.00000000E+00  0.00000000E+00  0.00000000E+00
  0.00000000E+00  0.00000000E+00  0.00000000E+00
  0.00000000E+00  0.00000000E+00  0.00000000E+00
  0.00000000E+00  0.00000000E+00  0.00000000E+00
  0.00000000E+00  0.00000000E+00  0.00000000E+00
  0.00000000E+00  0.00000000E+00  0.00000000E+00
  0.00000000E+00  0.00000000E+00  0.00000000E+00
  0.00000000E+00  0.00000000E+00  0.00000000E+00
  0.00000000E+00  0.00000000E+00  0.00000000E+00
  0.00000000E+00  0.00000000E+00  0.00000000E+00
  0.00000000E+00  0.00000000E+00  0.00000000E+00
  0.00000000E+00  0.00000000E+00  0.00000000E+00
  0.00000000E+00  0.00000000E+00  0.00000000E+00
  0.00000000E+00  0.00000000E+00  0.00000000E+00
  0.00000000E+00  0.00000000E+00  0.00000000E+00
  0.00000000E+00  0.00000000E+00  0.00000000E+00
  0.00000000E+00  0.00000000E+00  0.00000000E+00
  0.00000000E+00  0.00000000E+00  0.00000000E+00
  0.00000000E+00  0.00000000E+00  0.00000000E+00
  0.00000000E+00  0.00000000E+00  0.00000000E+00
  0.00000000E+00  0.00000000E+00  0.00000000E+00
  0.00000000E+00  0.00000000E+00  0.00000000E+00
  0.00000000E+00  0.00000000E+00  0.00000000E+00
  0.00000000E+00  0.00000000E+00  0.00000000E+00
  0.00000000E+00  0.00000000E+00  0.00000000E+00
  0.00000000E+00  0.00000000E+00  0.00000000E+00
  0.00000000E+00  0.00000000E+00  0.00000000E+00
  0.00000000E+00  0.00000000E+00  0.00000000E+00
  0.00000000E+00  0.00000000E+00  0.00000000E+00
  0.00000000E+00  0.00000000E+00  0.00000000E+00
  0.00000000E+00  0.00000000E+00  0.00000000E+00
  0.00000000E+00  0.00000000E+00  0.00000000E+00
  0.00000000E+00  0.00000000E+00  0.00000000E+00
  0.00000000E+00  0.00000000E+00  0.00000000E+00
  0.00000000E+00  0.00000000E+00  0.00000000E+00
  0.00000000E+00  0.00000000E+00  0.00000000E+00
  0.00000000E+00  0.00000000E+00  0.00000000E+00
  0.00000000E+00  0.00000000E+00  0.00000000E+00
  0.00000000E+00  0.00000000E+00  0.00000000E+00
  0.00000000E+00  0.00000000E+00  0.00000000E+00
  0.00000000E+00  0.00000000E+00  0.00000000E+00
  0.00000000E+00  0.00000000E+00  0.00000000E+00
  0.00000000E+00  0.00000000E+00  0.00000000E+00
  0.00000000E+00  0.00000000E+00  0.00000000E+00
  0.00000000E+00  0.00000000E+00  0.00000000E+00
  0.00000000E+00  0.00000000E+00  0.00000000E+00
  0.00000000E+00  0.00000000E+00  0.00000000E+00
  0.00000000E+00  0.00000000E+00  0.00000000E+00
  0.00000000E+00  0.00000000E+00  0.00000000E+00
  0.00000000E+00  0.00000000E+00  0.00000000E+00
  0.00000000E+00  0.00000000E+00  0.00000000E+00
  0.00000000E+00  0.00000000E+00  0.00000000E+00
  0.00000000E+00  0.00000000E+00  0.00000000E+00
  0.00000000E+00  0.00000000E+00  0.00000000E+00
  0.00000000E+00  0.00000000E+00  0.00000000E+00
  0.00000000E+00  0.00000000E+00  0.00000000E+00
  0.00000000E+00  0.00000000E+00  0.00000000E+00
  0.00000000E+00  0.00000000E+00  0.00000000E+00
  0.00000000E+00  0.00000000E+00  0.00000000E+00
  0.00000000E+00  0.00000000E+00  0.00000000E+00
  0.00000000E+00  0.00000000E+00  0.00000000E+00
  0.00000000E+00  0.00000000E+00  0.00000000E+00
  0.00000000E+00  0.00000000E+00  0.00000000E+00
  0.00000000E+00  0.00000000E+00  0.00000000E+00
  0.00000000E+00  0.00000000E+00  0.00000000E+00
  0.00000000E+00  0.00000000E+00  0.00000000E+00
