#generated using str2pos                
    1.000000000000000     
    13.0877755838214789   -0.0020833847569311    0.0056026668603132
    -0.0020846699318089   13.0782466860795861    0.0051554943526837
     0.0056042774974009    0.0051576305203909   13.0745932186402563
   Ta   W 
    96    32
Direct
  0.2448952284645493  0.2520449662532596  0.2483498562342942
  0.5011933372705314  0.2516331466490855  0.2468474085270642
  0.3731167598687110  0.1219189493961130  0.1269668366214085
  0.7510403546634963  0.2471762672941698  0.2489850558743043
  0.6238815295241018  0.1196942108742488  0.1255662734063076
  0.2482715052894858  0.4982478264798396  0.2483731385793541
  0.5001672940016765  0.5004354828680647  0.2468228736195881
  0.3734887456159797  0.3732136801780349  0.1260978349615565
  0.7501211402977658  0.4985011537476660  0.2501419428317675
  0.0012265134879587  0.4992581802531393  0.2518168566364184
  0.8781183464361838  0.3724540830650749  0.1257550216035961
  0.2518655848236943  0.7485600447347975  0.2469198766896591
  0.1230130608818827  0.6264434834112449  0.1258461664068534
  0.4994129593644892  0.7498126645128643  0.2491929259395619
  0.6292306072124667  0.6293191949952872  0.1244899825500958
 -0.0023276630574103  0.7523686860796427  0.2527228798160802
  0.8728506673435428  0.6281215987488663  0.1232893104503637
  0.1279570162443182  0.8786474280906014  0.1271013512237529
  0.3739325615292908  0.8809155145288419  0.1272227623214675
  0.7540790572297802  0.0006742620039298  0.2540856946118337
  0.6274126271034219  0.8752630941654472  0.1235711628608014
 -0.0038784834699386  0.0029377178195818  0.2489894125468354
  0.8714121399315727  0.8740404405645393  0.1224571744122092
  0.2460006676377491  0.2522320461332874  0.4970916698282246
  0.1252876419268795  0.1219620538314084  0.3745792812310800
  0.3740993700119253  0.1224936237964597  0.3742959992423128
  0.7559302870511254  0.2466164258889378  0.4996930658300017
  0.6211120936961418  0.1255860485786058  0.3751413665506382
 -0.0025320223578292  0.2493766265495415  0.4997121314690279
  0.2501873334398308  0.4983204830248190  0.5007554251933053
  0.4989365091495967  0.5037238749569435  0.5026154231549950
  0.3770781885489012  0.3727469021821675  0.3765956623370050
  0.7532040726094920  0.4994339461063366  0.4999398020263751
  0.6235806125986300  0.3729503574385993  0.3786142299728177
 -0.0011832723606777  0.4983978893917553  0.4981372265890748
  0.8757139123919574  0.3728790635956318  0.3717955217814312
  0.1277100002686530  0.6279802357049789  0.3767171348426001
  0.5027680838974476  0.7511220023595885  0.4995573973619646
  0.3731495832616245  0.6270149247187189  0.3762634304700607
  0.7518799039017620  0.7520610198434038  0.4950434313998388
  0.6257347805039511  0.6250291873887102  0.3730075729688175
 -0.0040734888435474  0.7508740289686515  0.4961797293320989
  0.1284664499972762  0.8789396763303722  0.3759487727272870
  0.5037683475031214 -0.0038662822280766  0.4997878138340375
  0.3719300491836384  0.8782003049864315  0.3742396101445117
  0.7521704963192539 -0.0002312753595486  0.4970790462918664
  0.2478310413948025  0.2486306620853063  0.7537432677671972
  0.1261705625938613  0.1216713775504738  0.6207237289848671
  0.3755220009227518  0.1255703914068399  0.6224541096901099
  0.6233156398637303  0.1280549667737356  0.6257235973936426
 -0.0009059096706129  0.2468559890986298  0.7476813177945538
  0.2539507638384812  0.5009727998133122  0.7522240941811940
  0.1255712324650245  0.3747468570034553  0.6266407090958944
  0.4961252496455143  0.5023223946072622  0.7521214859809189
  0.3774913198707787  0.3701846946303430  0.6245893155033381
  0.7515715000330213  0.4967532442837581  0.7485225828904901
  0.6228992660170973  0.3706517874177488  0.6261660289043423
 -0.0017787788117307  0.4976308339003904  0.7481355238881863
  0.2510790360515743  0.7495085583729517  0.7526232780916288
  0.1252100548868223  0.6264902489156208  0.6230087629024580
  0.4953745212459127  0.7475103850740593  0.7505576737833046
  0.6284747365061224  0.6264698704873136  0.6272617969278691
  0.0039050864572485  0.7538764441176379  0.7513296104613659
  0.8739180205933791  0.6276881976839273  0.6278996825807205
  0.2465259395175182  0.0003149373301789  0.7527751967968805
  0.1263689451559424  0.8768292440622406  0.6188594339849949
  0.5001207682631295 -0.0020513020171379  0.7498497260758137
  0.3715883679852403  0.8766647893559083  0.6214151536184551
  0.7530075417220298  0.0025156233225287  0.7463107141142312
  0.6278745453320511  0.8731630170400493  0.6275909852242578
  0.0018333996431372  0.0019169853477110  0.7517994770823772
  0.8767028930694213  0.8747058774778400  0.6260317942359158
  0.2470259805686685  0.2504738674285827  0.0006916465185103
  0.4996381498463658  0.2527309603366174  0.0012364229005464
  0.3753283287587058  0.1244309733748900  0.8759446962758201
  0.7487440948727393  0.2502785072667639  0.0050874324102013
  0.6266625243480842  0.1258499333414508  0.8736346208322140
  0.8726055817532565  0.1264650551021940  0.8768362206035855
  0.2523602254340641  0.4997358318822041  0.0003030251383970
  0.1213420543123932  0.3745734688650457  0.8755797851068049
  0.4977376296305713  0.4998821888160304 -0.0005284142794620
  0.7479900027085261  0.4956038056548978  0.0017965530549156
  0.6256529286444487  0.3717927021906863  0.8707127015354067
  0.0008808819625762  0.4984150967942909  0.0023482294348240
  0.8752636575297961  0.3707457928763593  0.8769728020111195
  0.2520869297908229  0.7484094689491801 -0.0009851064367723
  0.1226246731077312  0.6231312661641879  0.8751740839539177
  0.4951412567367356  0.7471562471889865  0.0001469683032373
  0.6294475055702647  0.6275470215899670  0.8751580793652913
  0.0041562372422090  0.7540188057998333 -0.0012186229210000
  0.8728966717120812  0.6273792566014783  0.8759400051855707
  0.5001181630334914  0.0000531922687601 -0.0013357142588402
  0.3743328696091331  0.8783113527121883  0.8773003984312715
  0.6293958101326396  0.8732664696225825  0.8765031027083704
  0.0022732422355693  0.0031551744692629  0.0007160243659675
  0.8712574425921800  0.8752751006956068  0.8770918864892627
  0.1244148732412321  0.1252165960562697  0.1261838907527408
  0.0005592395152421  0.2481057967717974  0.2495369539202089
  0.8760191968446889  0.1256014589521356  0.1238308132942548
  0.1220255857343871  0.3726512405629516  0.1241487283412898
  0.6252123959677236  0.3744460246958993  0.1251805197457072
  0.3749628249759674  0.6252205562174392  0.1260331126753789
  0.7507699079719996  0.7520431809379433  0.2533769040378643
  0.2473168824334676  0.0026709171615732  0.2484883167808598
  0.5024814763039828 -0.0015739007352785  0.2512504373996420
  0.5001774293643085  0.2486252210041880  0.4991948597148820
  0.8780135290805626  0.1252614065442623  0.3742465871770456
  0.1233281291757315  0.3732463408954101  0.3739387709152033
  0.2515281205540034  0.7487275985838815  0.5009904984583968
  0.8744008460796978  0.6253539400817431  0.3729549683611139
  0.2503038938066404  0.0013103571366588  0.4995649195938622
  0.6249363473251472  0.8752889858537427  0.3716744296237269
 -0.0036584457566893  0.0014875035293030  0.4977791567216366
  0.8762117550150404  0.8764247179581934  0.3738448294006260
  0.4979390158684133  0.2505171298353025  0.7525494291373797
  0.7530387826735950  0.2488451183601067  0.7476153974912553
  0.8758645212917298  0.1234397559119698  0.6250175843850939
  0.8738439693454132  0.3734199928244811  0.6260340395683307
  0.3738937145597550  0.6265228941195801  0.6233682764553801
  0.7506965763380987  0.7505853628178999  0.7490807892173259
  0.1239803350381265  0.1262281555942180  0.8778519170556779
  0.0012697826472168  0.2467260713058452  0.0026788605366422
  0.3755502035023967  0.3723854650536735  0.8740929900095096
  0.3749888445658096  0.6249252128170553  0.8755168822175315
  0.7497721398424414  0.7498733266005264  0.0008107714287336
  0.2460848987824412  0.0025890114211422 -0.0011368710606646
  0.1259774977414773  0.8770863889231019  0.8766668807966425
  0.7519846530501975  0.0028925161707836  0.0020859378580103
 
  0.00000000E+00  0.00000000E+00  0.00000000E+00
  0.00000000E+00  0.00000000E+00  0.00000000E+00
  0.00000000E+00  0.00000000E+00  0.00000000E+00
  0.00000000E+00  0.00000000E+00  0.00000000E+00
  0.00000000E+00  0.00000000E+00  0.00000000E+00
  0.00000000E+00  0.00000000E+00  0.00000000E+00
  0.00000000E+00  0.00000000E+00  0.00000000E+00
  0.00000000E+00  0.00000000E+00  0.00000000E+00
  0.00000000E+00  0.00000000E+00  0.00000000E+00
  0.00000000E+00  0.00000000E+00  0.00000000E+00
  0.00000000E+00  0.00000000E+00  0.00000000E+00
  0.00000000E+00  0.00000000E+00  0.00000000E+00
  0.00000000E+00  0.00000000E+00  0.00000000E+00
  0.00000000E+00  0.00000000E+00  0.00000000E+00
  0.00000000E+00  0.00000000E+00  0.00000000E+00
  0.00000000E+00  0.00000000E+00  0.00000000E+00
  0.00000000E+00  0.00000000E+00  0.00000000E+00
  0.00000000E+00  0.00000000E+00  0.00000000E+00
  0.00000000E+00  0.00000000E+00  0.00000000E+00
  0.00000000E+00  0.00000000E+00  0.00000000E+00
  0.00000000E+00  0.00000000E+00  0.00000000E+00
  0.00000000E+00  0.00000000E+00  0.00000000E+00
  0.00000000E+00  0.00000000E+00  0.00000000E+00
  0.00000000E+00  0.00000000E+00  0.00000000E+00
  0.00000000E+00  0.00000000E+00  0.00000000E+00
  0.00000000E+00  0.00000000E+00  0.00000000E+00
  0.00000000E+00  0.00000000E+00  0.00000000E+00
  0.00000000E+00  0.00000000E+00  0.00000000E+00
  0.00000000E+00  0.00000000E+00  0.00000000E+00
  0.00000000E+00  0.00000000E+00  0.00000000E+00
  0.00000000E+00  0.00000000E+00  0.00000000E+00
  0.00000000E+00  0.00000000E+00  0.00000000E+00
  0.00000000E+00  0.00000000E+00  0.00000000E+00
  0.00000000E+00  0.00000000E+00  0.00000000E+00
  0.00000000E+00  0.00000000E+00  0.00000000E+00
  0.00000000E+00  0.00000000E+00  0.00000000E+00
  0.00000000E+00  0.00000000E+00  0.00000000E+00
  0.00000000E+00  0.00000000E+00  0.00000000E+00
  0.00000000E+00  0.00000000E+00  0.00000000E+00
  0.00000000E+00  0.00000000E+00  0.00000000E+00
  0.00000000E+00  0.00000000E+00  0.00000000E+00
  0.00000000E+00  0.00000000E+00  0.00000000E+00
  0.00000000E+00  0.00000000E+00  0.00000000E+00
  0.00000000E+00  0.00000000E+00  0.00000000E+00
  0.00000000E+00  0.00000000E+00  0.00000000E+00
  0.00000000E+00  0.00000000E+00  0.00000000E+00
  0.00000000E+00  0.00000000E+00  0.00000000E+00
  0.00000000E+00  0.00000000E+00  0.00000000E+00
  0.00000000E+00  0.00000000E+00  0.00000000E+00
  0.00000000E+00  0.00000000E+00  0.00000000E+00
  0.00000000E+00  0.00000000E+00  0.00000000E+00
  0.00000000E+00  0.00000000E+00  0.00000000E+00
  0.00000000E+00  0.00000000E+00  0.00000000E+00
  0.00000000E+00  0.00000000E+00  0.00000000E+00
  0.00000000E+00  0.00000000E+00  0.00000000E+00
  0.00000000E+00  0.00000000E+00  0.00000000E+00
  0.00000000E+00  0.00000000E+00  0.00000000E+00
  0.00000000E+00  0.00000000E+00  0.00000000E+00
  0.00000000E+00  0.00000000E+00  0.00000000E+00
  0.00000000E+00  0.00000000E+00  0.00000000E+00
  0.00000000E+00  0.00000000E+00  0.00000000E+00
  0.00000000E+00  0.00000000E+00  0.00000000E+00
  0.00000000E+00  0.00000000E+00  0.00000000E+00
  0.00000000E+00  0.00000000E+00  0.00000000E+00
  0.00000000E+00  0.00000000E+00  0.00000000E+00
  0.00000000E+00  0.00000000E+00  0.00000000E+00
  0.00000000E+00  0.00000000E+00  0.00000000E+00
  0.00000000E+00  0.00000000E+00  0.00000000E+00
  0.00000000E+00  0.00000000E+00  0.00000000E+00
  0.00000000E+00  0.00000000E+00  0.00000000E+00
  0.00000000E+00  0.00000000E+00  0.00000000E+00
  0.00000000E+00  0.00000000E+00  0.00000000E+00
  0.00000000E+00  0.00000000E+00  0.00000000E+00
  0.00000000E+00  0.00000000E+00  0.00000000E+00
  0.00000000E+00  0.00000000E+00  0.00000000E+00
  0.00000000E+00  0.00000000E+00  0.00000000E+00
  0.00000000E+00  0.00000000E+00  0.00000000E+00
  0.00000000E+00  0.00000000E+00  0.00000000E+00
  0.00000000E+00  0.00000000E+00  0.00000000E+00
  0.00000000E+00  0.00000000E+00  0.00000000E+00
  0.00000000E+00  0.00000000E+00  0.00000000E+00
  0.00000000E+00  0.00000000E+00  0.00000000E+00
  0.00000000E+00  0.00000000E+00  0.00000000E+00
  0.00000000E+00  0.00000000E+00  0.00000000E+00
  0.00000000E+00  0.00000000E+00  0.00000000E+00
  0.00000000E+00  0.00000000E+00  0.00000000E+00
  0.00000000E+00  0.00000000E+00  0.00000000E+00
  0.00000000E+00  0.00000000E+00  0.00000000E+00
  0.00000000E+00  0.00000000E+00  0.00000000E+00
  0.00000000E+00  0.00000000E+00  0.00000000E+00
  0.00000000E+00  0.00000000E+00  0.00000000E+00
  0.00000000E+00  0.00000000E+00  0.00000000E+00
  0.00000000E+00  0.00000000E+00  0.00000000E+00
  0.00000000E+00  0.00000000E+00  0.00000000E+00
  0.00000000E+00  0.00000000E+00  0.00000000E+00
  0.00000000E+00  0.00000000E+00  0.00000000E+00
  0.00000000E+00  0.00000000E+00  0.00000000E+00
  0.00000000E+00  0.00000000E+00  0.00000000E+00
  0.00000000E+00  0.00000000E+00  0.00000000E+00
  0.00000000E+00  0.00000000E+00  0.00000000E+00
  0.00000000E+00  0.00000000E+00  0.00000000E+00
  0.00000000E+00  0.00000000E+00  0.00000000E+00
  0.00000000E+00  0.00000000E+00  0.00000000E+00
  0.00000000E+00  0.00000000E+00  0.00000000E+00
  0.00000000E+00  0.00000000E+00  0.00000000E+00
  0.00000000E+00  0.00000000E+00  0.00000000E+00
  0.00000000E+00  0.00000000E+00  0.00000000E+00
  0.00000000E+00  0.00000000E+00  0.00000000E+00
  0.00000000E+00  0.00000000E+00  0.00000000E+00
  0.00000000E+00  0.00000000E+00  0.00000000E+00
  0.00000000E+00  0.00000000E+00  0.00000000E+00
  0.00000000E+00  0.00000000E+00  0.00000000E+00
  0.00000000E+00  0.00000000E+00  0.00000000E+00
  0.00000000E+00  0.00000000E+00  0.00000000E+00
  0.00000000E+00  0.00000000E+00  0.00000000E+00
  0.00000000E+00  0.00000000E+00  0.00000000E+00
  0.00000000E+00  0.00000000E+00  0.00000000E+00
  0.00000000E+00  0.00000000E+00  0.00000000E+00
  0.00000000E+00  0.00000000E+00  0.00000000E+00
  0.00000000E+00  0.00000000E+00  0.00000000E+00
  0.00000000E+00  0.00000000E+00  0.00000000E+00
  0.00000000E+00  0.00000000E+00  0.00000000E+00
  0.00000000E+00  0.00000000E+00  0.00000000E+00
  0.00000000E+00  0.00000000E+00  0.00000000E+00
  0.00000000E+00  0.00000000E+00  0.00000000E+00
  0.00000000E+00  0.00000000E+00  0.00000000E+00
  0.00000000E+00  0.00000000E+00  0.00000000E+00
  0.00000000E+00  0.00000000E+00  0.00000000E+00
