#BCC aalvarado POSCAR generator         
    12.76000000000000     
     1.0197797348084627   -0.0000722955626883   -0.0002574841058896
    -0.0000725507456639    1.0160428283011134    0.0027125743163481
    -0.0002577685315155    0.0027116239628650    1.0169774377631788
   Ta   W 
    76    52
Direct
  0.4990393128742763  0.4981951427386161  0.4994078676152290
  0.6231297696653393  0.6281728932948516  0.3767527170379698
  0.3754390946853229  0.6276354471123899  0.3749916631412638
  0.3739341005625001  0.6266578595136307  0.6260028527590447
  0.7507581669792233  0.7510584988391285  0.7534186866759789
  0.7540448278157664  0.5012995839666601  0.4988131949036664
  0.7504922208040551  0.4971620172317504  0.7528904617351598
  0.4962688138769650  0.7510295361015620  0.7544780307534632
  0.7536162285403009  0.7490153551149381  0.2500387926448059
  0.7526416334503292  0.5040453465410603  0.2482300568105181
  0.5013914868846641  0.5026867721199191  0.2477013423501174
  0.4984949574550582  0.7507594449270846  0.2453632952473895
  0.7482954821497775  0.2477054990494904  0.2487454532725395
  0.7500674402476812  0.2461851687639510  0.4992574237655912
  0.4989524545598780  0.2467375020590920  0.4996136596703092
  0.2506466847959152  0.2509811590473418  0.2493235817486859
  0.2455617869394105  0.5016987549762795  0.2482262794218858
  0.2449144968575860  0.5007724600198661  0.4992525950821428
  0.4984914678282998  0.2482785839796970  0.7504224643184875
  0.2473376463997350  0.2482838711439789  0.7489615176468234
  0.2485508839989471  0.4987167708792425  0.7493271270526459
  0.2455560353024253  0.7510676862740259  0.2472698897621844
  0.2451708367179776  0.7510328851951708  0.4958112929705673
  0.8801794103321839  0.8750813902953170  0.6251863804731449
  0.8794009467048012  0.6256421674961471  0.6283115897990541
  0.8780064774632010  0.6214860788315772  0.8760922389544298
  0.6234782871804985  0.6227705633526054  0.8776983353138068
  0.6221613952930483  0.8753791037507476  0.6230711687907016
  0.6220237058410030  0.8749626557125093  0.8795918417196124
  0.6205219639146361  0.8764737792322538  0.3750455764330382
  0.8796074579084134  0.3724783419610539  0.3728368324068497
  0.8768510759802927  0.3719611984020159  0.6272028689716201
  0.3734221517356545  0.3763680914365322  0.8775886796662066
  0.3759112915895150  0.8776183113542673  0.3742576069190037
  0.3733530705791576  0.8731009161503450  0.6230468521908106
  0.8780133704658826  0.8759518154737436  0.1284359319780343
  0.6224072053730286  0.8768191705524777  0.1245772679822799
  0.8790521769672792  0.3759074476029011  0.1234195222383963
  0.6252915230489082  0.3765795628377420  0.1231945108094019
  0.3749080720378143  0.3754111453743474  0.1216593688550021
  0.3746364866284623  0.6240920214793308  0.1205576836765406
  0.8811726385742573  0.1268253733162019  0.1261500853362027
  0.8811608479965325  0.1251841821450499  0.3745770013475438
  0.3748098120037120  0.1248157090467364  0.1254608163843900
  0.6256805803924802  0.1236873605657563  0.6263856513860104
  0.1255868464672994  0.1263787988113659  0.1263208381783166
  0.1234463622254091  0.1251068684225601  0.3745606817336640
  0.1227854611958933  0.3719301391165282  0.3735766271116354
  0.1215108696975948  0.1246621389952699  0.6229572583673609
  0.1226691201937689  0.6283215876327526  0.6284234000378172
  0.6255090068599043  0.1239659306756758  0.8746615508121121
  0.3744300428706157  0.1256593826500597  0.8795211916311730
  0.1232652998668186  0.3751076141809363  0.8773796066221758
  0.1232085573630519  0.6227962051211624  0.8741610191553731
  0.1216796273665858  0.8745108456915578  0.6253496951869577
  0.0027259049417043 -0.0014404935988453 -0.0028377749399569
  0.0019065088323707  0.7510866705545930  0.0027856566254367
  0.7529425594765002  0.7493229230694081  0.0023453485356262
  0.7539965505800255 -0.0001824881546295  0.7517373760736894
  0.7538477614797422  0.0014211585605941 -0.0004702907329278
  0.7521156689264989  0.0008720799469237  0.4990963771648756
  0.0016625242701928  0.5014766996026635  0.4983177956107698
  0.4953583593521779 -0.0005791953064122  0.7508105910017656
  0.7498522945416092  0.0015346409705186  0.2513990198569743
  0.7511295023611226  0.2493841100060963 -0.0012563037744347
  0.5043514312262228  0.2504665857665042 -0.0005936663280030
  0.2486877317390291  0.7526157440202847  0.0008651277228225
  0.2496946734513180  0.0005668733063901  0.4988651150483014
  0.2487268413954958  0.0006616471518839  0.7521354000426560
  0.2478454851483595 -0.0041017924806334 -0.0010827809088433
  0.6222016905045721  0.6250711519206621  0.6266486110995398
  0.6245801618630454  0.3740083913150682  0.3729234880366071
  0.3735004330315819  0.3727324434007612  0.3736048668927726
  0.6259053188249671  0.3739141746776665  0.6276000868635134
  0.3740939549500912  0.3755069548017122  0.6256159345265391
  0.7540032244639893  0.7509369687929431  0.4979119534372409
  0.4993267656099625  0.4995757543540862  0.7531036377615229
  0.4987310366741644  0.7511627824119864  0.5000274929934165
  0.5011319314558740  0.2471674902344962  0.2500622835212593
  0.2504961219130413  0.2482327158882933  0.5006349724646150
  0.7531694979477993  0.2487670475680239  0.7525737165052639
  0.2498395459946108  0.7511486783044560  0.7541036569110231
  0.8777501711269955  0.8746679908906608  0.8739562284002395
  0.8796620773589088  0.8762137612677866  0.3753275365657964
  0.8782466669042096  0.6264565013749052  0.3736195838754534
  0.8778340487269634  0.3739007029556837  0.8752370213445574
  0.6257161846803808  0.3763829444709711  0.8754967079926970
  0.3739086739219397  0.6232497955210368  0.8762483867391037
  0.3740514205279813  0.8737809593080552  0.8764501897919404
  0.8782043857039957  0.6230306989275769  0.1245520751452261
  0.6248400291509884  0.6251396294005506  0.1213330730890963
  0.3761638790150980  0.8775441155603879  0.1252150780551877
  0.6226798201240699  0.1239271976330279  0.1254837683496854
  0.6227588551254186  0.1233689016918038  0.3744814592743631
  0.3743731709185337  0.1237125900910336  0.3724553709634820
  0.8783674474742180  0.1253221614884786  0.6258011476063153
  0.3728288786714277  0.1242926862281677  0.6230423712697286
  0.1236901483138963  0.3747269520668853  0.1223818875945950
  0.1222409676337557  0.3723920413105857  0.6254687487445038
  0.1233710557877091  0.6233421824000592  0.1237639238073998
  0.1217217204172624  0.6269390873977659  0.3731966396227293
  0.8773110342220912  0.1269225320505552  0.8733581025790669
  0.1228003035157916  0.1271918681384184  0.8747081436396072
  0.1247508209834671  0.8763445870557450  0.1277201779710457
  0.1231614233385891  0.8771207689018169  0.3738232741982417
  0.1246608028791378  0.8733318635692096  0.8724379978474055
 -0.0004139737653123  0.0012672098630592  0.7529435963230326
  0.0001495710046074  0.7522103305137988  0.7533451563212320
 -0.0000812051476943 -0.0013296457597536  0.4992572925909640
 -0.0001477132259797  0.7500934256661491  0.4954946090095164
 -0.0002835549200943  0.4961137360537199  0.7507782167536059
  0.0005766564123767  0.4995128052519172  0.0024873537663037
  0.7514103546624580  0.4994776097745207  0.0002761169247648
  0.5012350496621469  0.5008518752620732 -0.0006487387326370
  0.4970632910867613  0.7494363817670400 -0.0000172195991922
  0.4978606000684571  0.0041430111998717  0.4990674441966601
  0.4981090103832994 -0.0005864437265999  0.0018531489105668
  0.0020856937300651 -0.0034645576586690  0.2503207022579325
  0.0015577661694755  0.7496897693012226  0.2504897863058231
  0.0011218096515806  0.5044833463827909  0.2482058772939169
  0.4996261186077546  0.0019565613492734  0.2498773193165801
  0.0023809874824060  0.2514814131304832  0.2475517357037298
  0.0002198054258763  0.2497292337983612  0.5028315107023644
 -0.0003735311242273  0.2477320928811362  0.7512183652384115
 -0.0000374770906516  0.2501836374921224 -0.0032406969180335
  0.2477178483174547  0.2495202447338267  0.0000879485263227
  0.2481738207830109  0.5021030584317550  0.0004849499922357
  0.2501946328381910 -0.0014514690520152  0.2492890117812370
 
  0.00000000E+00  0.00000000E+00  0.00000000E+00
  0.00000000E+00  0.00000000E+00  0.00000000E+00
  0.00000000E+00  0.00000000E+00  0.00000000E+00
  0.00000000E+00  0.00000000E+00  0.00000000E+00
  0.00000000E+00  0.00000000E+00  0.00000000E+00
  0.00000000E+00  0.00000000E+00  0.00000000E+00
  0.00000000E+00  0.00000000E+00  0.00000000E+00
  0.00000000E+00  0.00000000E+00  0.00000000E+00
  0.00000000E+00  0.00000000E+00  0.00000000E+00
  0.00000000E+00  0.00000000E+00  0.00000000E+00
  0.00000000E+00  0.00000000E+00  0.00000000E+00
  0.00000000E+00  0.00000000E+00  0.00000000E+00
  0.00000000E+00  0.00000000E+00  0.00000000E+00
  0.00000000E+00  0.00000000E+00  0.00000000E+00
  0.00000000E+00  0.00000000E+00  0.00000000E+00
  0.00000000E+00  0.00000000E+00  0.00000000E+00
  0.00000000E+00  0.00000000E+00  0.00000000E+00
  0.00000000E+00  0.00000000E+00  0.00000000E+00
  0.00000000E+00  0.00000000E+00  0.00000000E+00
  0.00000000E+00  0.00000000E+00  0.00000000E+00
  0.00000000E+00  0.00000000E+00  0.00000000E+00
  0.00000000E+00  0.00000000E+00  0.00000000E+00
  0.00000000E+00  0.00000000E+00  0.00000000E+00
  0.00000000E+00  0.00000000E+00  0.00000000E+00
  0.00000000E+00  0.00000000E+00  0.00000000E+00
  0.00000000E+00  0.00000000E+00  0.00000000E+00
  0.00000000E+00  0.00000000E+00  0.00000000E+00
  0.00000000E+00  0.00000000E+00  0.00000000E+00
  0.00000000E+00  0.00000000E+00  0.00000000E+00
  0.00000000E+00  0.00000000E+00  0.00000000E+00
  0.00000000E+00  0.00000000E+00  0.00000000E+00
  0.00000000E+00  0.00000000E+00  0.00000000E+00
  0.00000000E+00  0.00000000E+00  0.00000000E+00
  0.00000000E+00  0.00000000E+00  0.00000000E+00
  0.00000000E+00  0.00000000E+00  0.00000000E+00
  0.00000000E+00  0.00000000E+00  0.00000000E+00
  0.00000000E+00  0.00000000E+00  0.00000000E+00
  0.00000000E+00  0.00000000E+00  0.00000000E+00
  0.00000000E+00  0.00000000E+00  0.00000000E+00
  0.00000000E+00  0.00000000E+00  0.00000000E+00
  0.00000000E+00  0.00000000E+00  0.00000000E+00
  0.00000000E+00  0.00000000E+00  0.00000000E+00
  0.00000000E+00  0.00000000E+00  0.00000000E+00
  0.00000000E+00  0.00000000E+00  0.00000000E+00
  0.00000000E+00  0.00000000E+00  0.00000000E+00
  0.00000000E+00  0.00000000E+00  0.00000000E+00
  0.00000000E+00  0.00000000E+00  0.00000000E+00
  0.00000000E+00  0.00000000E+00  0.00000000E+00
  0.00000000E+00  0.00000000E+00  0.00000000E+00
  0.00000000E+00  0.00000000E+00  0.00000000E+00
  0.00000000E+00  0.00000000E+00  0.00000000E+00
  0.00000000E+00  0.00000000E+00  0.00000000E+00
  0.00000000E+00  0.00000000E+00  0.00000000E+00
  0.00000000E+00  0.00000000E+00  0.00000000E+00
  0.00000000E+00  0.00000000E+00  0.00000000E+00
  0.00000000E+00  0.00000000E+00  0.00000000E+00
  0.00000000E+00  0.00000000E+00  0.00000000E+00
  0.00000000E+00  0.00000000E+00  0.00000000E+00
  0.00000000E+00  0.00000000E+00  0.00000000E+00
  0.00000000E+00  0.00000000E+00  0.00000000E+00
  0.00000000E+00  0.00000000E+00  0.00000000E+00
  0.00000000E+00  0.00000000E+00  0.00000000E+00
  0.00000000E+00  0.00000000E+00  0.00000000E+00
  0.00000000E+00  0.00000000E+00  0.00000000E+00
  0.00000000E+00  0.00000000E+00  0.00000000E+00
  0.00000000E+00  0.00000000E+00  0.00000000E+00
  0.00000000E+00  0.00000000E+00  0.00000000E+00
  0.00000000E+00  0.00000000E+00  0.00000000E+00
  0.00000000E+00  0.00000000E+00  0.00000000E+00
  0.00000000E+00  0.00000000E+00  0.00000000E+00
  0.00000000E+00  0.00000000E+00  0.00000000E+00
  0.00000000E+00  0.00000000E+00  0.00000000E+00
  0.00000000E+00  0.00000000E+00  0.00000000E+00
  0.00000000E+00  0.00000000E+00  0.00000000E+00
  0.00000000E+00  0.00000000E+00  0.00000000E+00
  0.00000000E+00  0.00000000E+00  0.00000000E+00
  0.00000000E+00  0.00000000E+00  0.00000000E+00
  0.00000000E+00  0.00000000E+00  0.00000000E+00
  0.00000000E+00  0.00000000E+00  0.00000000E+00
  0.00000000E+00  0.00000000E+00  0.00000000E+00
  0.00000000E+00  0.00000000E+00  0.00000000E+00
  0.00000000E+00  0.00000000E+00  0.00000000E+00
  0.00000000E+00  0.00000000E+00  0.00000000E+00
  0.00000000E+00  0.00000000E+00  0.00000000E+00
  0.00000000E+00  0.00000000E+00  0.00000000E+00
  0.00000000E+00  0.00000000E+00  0.00000000E+00
  0.00000000E+00  0.00000000E+00  0.00000000E+00
  0.00000000E+00  0.00000000E+00  0.00000000E+00
  0.00000000E+00  0.00000000E+00  0.00000000E+00
  0.00000000E+00  0.00000000E+00  0.00000000E+00
  0.00000000E+00  0.00000000E+00  0.00000000E+00
  0.00000000E+00  0.00000000E+00  0.00000000E+00
  0.00000000E+00  0.00000000E+00  0.00000000E+00
  0.00000000E+00  0.00000000E+00  0.00000000E+00
  0.00000000E+00  0.00000000E+00  0.00000000E+00
  0.00000000E+00  0.00000000E+00  0.00000000E+00
  0.00000000E+00  0.00000000E+00  0.00000000E+00
  0.00000000E+00  0.00000000E+00  0.00000000E+00
  0.00000000E+00  0.00000000E+00  0.00000000E+00
  0.00000000E+00  0.00000000E+00  0.00000000E+00
  0.00000000E+00  0.00000000E+00  0.00000000E+00
  0.00000000E+00  0.00000000E+00  0.00000000E+00
  0.00000000E+00  0.00000000E+00  0.00000000E+00
  0.00000000E+00  0.00000000E+00  0.00000000E+00
  0.00000000E+00  0.00000000E+00  0.00000000E+00
  0.00000000E+00  0.00000000E+00  0.00000000E+00
  0.00000000E+00  0.00000000E+00  0.00000000E+00
  0.00000000E+00  0.00000000E+00  0.00000000E+00
  0.00000000E+00  0.00000000E+00  0.00000000E+00
  0.00000000E+00  0.00000000E+00  0.00000000E+00
  0.00000000E+00  0.00000000E+00  0.00000000E+00
  0.00000000E+00  0.00000000E+00  0.00000000E+00
  0.00000000E+00  0.00000000E+00  0.00000000E+00
  0.00000000E+00  0.00000000E+00  0.00000000E+00
  0.00000000E+00  0.00000000E+00  0.00000000E+00
  0.00000000E+00  0.00000000E+00  0.00000000E+00
  0.00000000E+00  0.00000000E+00  0.00000000E+00
  0.00000000E+00  0.00000000E+00  0.00000000E+00
  0.00000000E+00  0.00000000E+00  0.00000000E+00
  0.00000000E+00  0.00000000E+00  0.00000000E+00
  0.00000000E+00  0.00000000E+00  0.00000000E+00
  0.00000000E+00  0.00000000E+00  0.00000000E+00
  0.00000000E+00  0.00000000E+00  0.00000000E+00
  0.00000000E+00  0.00000000E+00  0.00000000E+00
  0.00000000E+00  0.00000000E+00  0.00000000E+00
  0.00000000E+00  0.00000000E+00  0.00000000E+00
  0.00000000E+00  0.00000000E+00  0.00000000E+00
  0.00000000E+00  0.00000000E+00  0.00000000E+00
