#generated using str2pos                
    1.000000000000000     
    13.1140981575618145   -0.0009053386896228   -0.0091884175136638
    -0.0009044036812693   13.1130690186186740   -0.0008243958581863
    -0.0091879931261392   -0.0008255883788688   13.1021831684373034
   Ta   W 
   102    26
Direct
  0.2512767795293611  0.2548540334850371  0.2525401838236774
  0.1293992241534550  0.1207327567658154  0.1252972262775820
  0.4957164192244782  0.2532307068115379  0.2517333530128755
  0.3730542203328415  0.1225349683766497  0.1238222101569941
  0.7488199510646856  0.2505549855384550  0.2501974292658036
  0.6216715947701527  0.1274967751898510  0.1227282977971191
  0.0029215762707894  0.2514785804207941  0.2526076475677066
  0.8746759502935858  0.1265279024346314  0.1254829923507267
  0.2507402802045667  0.4972503528588696  0.2521434765381119
  0.1240297676146666  0.3758265776967354  0.1242016586116484
  0.4963054531048252  0.4967710644357275  0.2512213748976475
  0.7507192134246168  0.5036917443581652  0.2493439027092806
  0.6224035977794908  0.3766246443831919  0.1219794090634147
  0.0005143786548352  0.5012215213493869  0.2537768057337498
  0.8748856317700702  0.3767743728542040  0.1250999022492910
  0.2481951577174946  0.7484951730461574  0.2500730069781808
  0.1237555378910908  0.6267428419218126  0.1232596767997976
  0.3787760670106251  0.6272035345116483  0.1239900101713170
  0.7533361502391561  0.7504047880375456  0.2474607841425950
  0.6208158129440714  0.6265931318917249  0.1245677189166513
 -0.0031279442293585  0.7501292954090004  0.2488958076619235
  0.8766047535211071  0.6250209644578911  0.1220367661833682
  0.1279645097526432  0.8756787380890646  0.1231491577335281
  0.5016229106160790  0.0013727078512713  0.2484394722610175
  0.3743516178422031  0.8749843299689170  0.1262084612057743
  0.7501136928302636 -0.0021957996902066  0.2474192486478091
  0.6203298141510883  0.8711089387867360  0.1248971300167864
 -0.0032644548616598 -0.0027423978893181  0.2475844587881936
  0.2488292701994618  0.2537772375743922  0.4980136269371576
  0.1277089910779798  0.1211513315388448  0.3736329052103938
  0.4972746515201369  0.2528425538676249  0.4981514770376461
  0.3744279723053963  0.1202114805914815  0.3756625371028078
  0.7513655457822470  0.2505327539107157  0.5024094231970376
  0.6226172962034443  0.1237166450976606  0.3766541279971639
  0.0030734495897428  0.2539714166388072  0.5008782704883017
  0.8753689943158207  0.1252992826055189  0.3757011189173842
  0.2496280241947209  0.4982817441247619  0.5004035166348798
  0.4952321774266573  0.5010800322602189  0.4998860858709070
  0.6280910715434627  0.3790939150903438  0.3772295464487704
  0.0012893807001495  0.4969775823723711  0.4993607712285945
  0.8716992175295131  0.3772660638231523  0.3750068136293609
  0.2539387351578580  0.7493488112897905  0.5039473222749172
  0.1236472421310755  0.6282865421072771  0.3774618077098545
  0.4959804429979304  0.7487175349707452  0.5044638431572028
  0.3758521562473056  0.6283089087484913  0.3718996881487493
  0.6258988520677217  0.6271828521104438  0.3754104955402155
  0.2506373665813751 -0.0032955798646275  0.5043288434852595
  0.1245944144739585  0.8739487372950139  0.3757302525275815
  0.3761591112760497  0.8760642329355386  0.3727146930104085
  0.7506385501037593  0.0007152596485140  0.5002816987396959
  0.6237364312398541  0.8727371985440181  0.3762741852157467
  0.0010200822725558  0.0011781905329290  0.5004673321731941
  0.8743619144887558  0.8719547690841202  0.3790791486808303
  0.1279595832737479  0.1245454276597188  0.6275332974066797
  0.5014230575993955  0.2507052906107332  0.7491495561172847
  0.3760105582892861  0.1247153547374271  0.6275393531097300
  0.7509446525341599  0.2516260523348129  0.7477588007919356
  0.6214358285490310  0.1217521237997955  0.6252700665422426
  0.0002051357202505  0.2522564040265923  0.7464753266516783
  0.8759268351389287  0.1238098288479505  0.6249673726211467
  0.2504840845803116  0.5020388348046914  0.7467964059662370
  0.5004673463336123  0.5044862702326171  0.7487977439579808
  0.3746925114905811  0.3719370441398090  0.6290134045982798
  0.7500376138944782  0.5017215213564519  0.7506540634994397
  0.6252535873178016  0.3781203696734087  0.6233119938809543
  0.0008903330608685  0.4962093371732952  0.7451520553131696
  0.2558029604283995  0.7507236555366104  0.7495313528086628
  0.1204664785626471  0.6286330233847175  0.6247573027509641
  0.4985715420547824  0.7485382851465687  0.7490060578469776
  0.7478313340860536  0.7505484212219482  0.7542010177217828
  0.6305253996711210  0.6252197114765434  0.6206799751440476
  0.8750510254014761  0.6281894156374500  0.6227006725170001
  0.2525408005654423 -0.0054266007900707  0.7498537933675097
  0.1208840619588280  0.8709804439294516  0.6263405955420761
  0.7517519791670731 -0.0026511564346410  0.7524034820146001
  0.6248670654458497  0.8756959514031640  0.6236506791502732
 -0.0011548804339923 -0.0011159234760993  0.7525693602480918
  0.8760521651068128  0.8695613174893155  0.6228985159327362
  0.2514172506376263  0.2517440812478127  0.0036485868714793
  0.1299886647248328  0.1241403123216026  0.8754611347052751
  0.3753164558550580  0.1254951755462440  0.8754947752251768
  0.7503138075010225  0.2497234031370356 -0.0010330644266522
  0.6213839465267671  0.1250295224130587  0.8743036572492350
  0.0011201474703654  0.2487528872227849  0.0005287381204546
  0.8751371822558129  0.1261425013388532  0.8740285214178047
  0.2512603415824028  0.4990583755647961  0.0018562222837316
  0.1283813253214295  0.3728107473363409  0.8743879355058988
  0.3764250192882923  0.3734152155393656  0.8753539079888472
  0.7486542048286128  0.5040131903870629 -0.0025683743408196
  0.6214234696120322  0.3752737200648814  0.8771709287130167
  0.0012749644030761  0.4995329088698905 -0.0007772778484504
  0.8752983450015426  0.3759594360950188  0.8751667054959800
  0.2519064395095029  0.7499485046662022 -0.0020681812583707
  0.1230515653562331  0.6274412151101799  0.8733892931851590
  0.3769931106385551  0.6237087222061241  0.8792322823808438
  0.7501109617445956  0.7521033968181443 -0.0021664030314594
  0.8794305204706372  0.6265693707112342  0.8734537165243785
  0.1246686692784158  0.8730181733497496  0.8761834137406229
  0.4993503053485192 -0.0017524212838243 -0.0009626133695776
  0.7513869182119794 -0.0038247885375646 -0.0001602655444166
  0.6213635527974914  0.8756335056217249  0.8742677128375541
 -0.0037876201713616 -0.0023147182642845 -0.0001521029016697
  0.3767016880624734  0.3750509366057546  0.1224829596719372
  0.5003718382720249  0.7498244466084992  0.2505104806626740
  0.2502810782156624 -0.0009108695356172  0.2507323234224911
  0.8754807637588369  0.8729955989777448  0.1238347839897017
  0.1240491020360285  0.3760371989954258  0.3751572582321310
  0.3750339137430780  0.3754947153608600  0.3761531826467476
  0.7528171956699053  0.5009233784703332  0.4996672777510999
  0.7497275281583315  0.7492544844695916  0.4985027623089852
 -0.0005611995711473  0.7478731866146476  0.4982343247275921
  0.8736373479652300  0.6261383740253741  0.3781925441505464
  0.4984171147996104 -0.0019145340540337  0.5014833035137966
  0.2498859413770619  0.2501426696828422  0.7492648046234759
  0.1273737357805670  0.3743319811946404  0.6267101275599670
  0.8733472744357208  0.3779952287817230  0.6230986014268918
  0.3749477578489289  0.6241827672714488  0.6256634405967448
 -0.0011564443683205  0.7505212853496974  0.7511378255348207
  0.4979346920214353 -0.0035262131870803  0.7513466099969532
  0.3775248188754454  0.8772975421105701  0.6257158453563512
  0.4977791011612193  0.2502193586444625  0.0013927997254223
  0.4997416139344937  0.5009416206034044 -0.0000096897241634
  0.5000661910935711  0.7509568898210665 -0.0038334927877308
  0.6231179327531110  0.6259013311443944  0.8763112363598233
 -0.0020043872374243  0.7526638775361926 -0.0000449941150437
  0.2521323778857852 -0.0021331064003380 -0.0025342314713930
  0.3760563541173659  0.8756104999829426  0.8768767367965549
  0.8768270561764648  0.8719677792713099  0.8736945830914679
 
  0.00000000E+00  0.00000000E+00  0.00000000E+00
  0.00000000E+00  0.00000000E+00  0.00000000E+00
  0.00000000E+00  0.00000000E+00  0.00000000E+00
  0.00000000E+00  0.00000000E+00  0.00000000E+00
  0.00000000E+00  0.00000000E+00  0.00000000E+00
  0.00000000E+00  0.00000000E+00  0.00000000E+00
  0.00000000E+00  0.00000000E+00  0.00000000E+00
  0.00000000E+00  0.00000000E+00  0.00000000E+00
  0.00000000E+00  0.00000000E+00  0.00000000E+00
  0.00000000E+00  0.00000000E+00  0.00000000E+00
  0.00000000E+00  0.00000000E+00  0.00000000E+00
  0.00000000E+00  0.00000000E+00  0.00000000E+00
  0.00000000E+00  0.00000000E+00  0.00000000E+00
  0.00000000E+00  0.00000000E+00  0.00000000E+00
  0.00000000E+00  0.00000000E+00  0.00000000E+00
  0.00000000E+00  0.00000000E+00  0.00000000E+00
  0.00000000E+00  0.00000000E+00  0.00000000E+00
  0.00000000E+00  0.00000000E+00  0.00000000E+00
  0.00000000E+00  0.00000000E+00  0.00000000E+00
  0.00000000E+00  0.00000000E+00  0.00000000E+00
  0.00000000E+00  0.00000000E+00  0.00000000E+00
  0.00000000E+00  0.00000000E+00  0.00000000E+00
  0.00000000E+00  0.00000000E+00  0.00000000E+00
  0.00000000E+00  0.00000000E+00  0.00000000E+00
  0.00000000E+00  0.00000000E+00  0.00000000E+00
  0.00000000E+00  0.00000000E+00  0.00000000E+00
  0.00000000E+00  0.00000000E+00  0.00000000E+00
  0.00000000E+00  0.00000000E+00  0.00000000E+00
  0.00000000E+00  0.00000000E+00  0.00000000E+00
  0.00000000E+00  0.00000000E+00  0.00000000E+00
  0.00000000E+00  0.00000000E+00  0.00000000E+00
  0.00000000E+00  0.00000000E+00  0.00000000E+00
  0.00000000E+00  0.00000000E+00  0.00000000E+00
  0.00000000E+00  0.00000000E+00  0.00000000E+00
  0.00000000E+00  0.00000000E+00  0.00000000E+00
  0.00000000E+00  0.00000000E+00  0.00000000E+00
  0.00000000E+00  0.00000000E+00  0.00000000E+00
  0.00000000E+00  0.00000000E+00  0.00000000E+00
  0.00000000E+00  0.00000000E+00  0.00000000E+00
  0.00000000E+00  0.00000000E+00  0.00000000E+00
  0.00000000E+00  0.00000000E+00  0.00000000E+00
  0.00000000E+00  0.00000000E+00  0.00000000E+00
  0.00000000E+00  0.00000000E+00  0.00000000E+00
  0.00000000E+00  0.00000000E+00  0.00000000E+00
  0.00000000E+00  0.00000000E+00  0.00000000E+00
  0.00000000E+00  0.00000000E+00  0.00000000E+00
  0.00000000E+00  0.00000000E+00  0.00000000E+00
  0.00000000E+00  0.00000000E+00  0.00000000E+00
  0.00000000E+00  0.00000000E+00  0.00000000E+00
  0.00000000E+00  0.00000000E+00  0.00000000E+00
  0.00000000E+00  0.00000000E+00  0.00000000E+00
  0.00000000E+00  0.00000000E+00  0.00000000E+00
  0.00000000E+00  0.00000000E+00  0.00000000E+00
  0.00000000E+00  0.00000000E+00  0.00000000E+00
  0.00000000E+00  0.00000000E+00  0.00000000E+00
  0.00000000E+00  0.00000000E+00  0.00000000E+00
  0.00000000E+00  0.00000000E+00  0.00000000E+00
  0.00000000E+00  0.00000000E+00  0.00000000E+00
  0.00000000E+00  0.00000000E+00  0.00000000E+00
  0.00000000E+00  0.00000000E+00  0.00000000E+00
  0.00000000E+00  0.00000000E+00  0.00000000E+00
  0.00000000E+00  0.00000000E+00  0.00000000E+00
  0.00000000E+00  0.00000000E+00  0.00000000E+00
  0.00000000E+00  0.00000000E+00  0.00000000E+00
  0.00000000E+00  0.00000000E+00  0.00000000E+00
  0.00000000E+00  0.00000000E+00  0.00000000E+00
  0.00000000E+00  0.00000000E+00  0.00000000E+00
  0.00000000E+00  0.00000000E+00  0.00000000E+00
  0.00000000E+00  0.00000000E+00  0.00000000E+00
  0.00000000E+00  0.00000000E+00  0.00000000E+00
  0.00000000E+00  0.00000000E+00  0.00000000E+00
  0.00000000E+00  0.00000000E+00  0.00000000E+00
  0.00000000E+00  0.00000000E+00  0.00000000E+00
  0.00000000E+00  0.00000000E+00  0.00000000E+00
  0.00000000E+00  0.00000000E+00  0.00000000E+00
  0.00000000E+00  0.00000000E+00  0.00000000E+00
  0.00000000E+00  0.00000000E+00  0.00000000E+00
  0.00000000E+00  0.00000000E+00  0.00000000E+00
  0.00000000E+00  0.00000000E+00  0.00000000E+00
  0.00000000E+00  0.00000000E+00  0.00000000E+00
  0.00000000E+00  0.00000000E+00  0.00000000E+00
  0.00000000E+00  0.00000000E+00  0.00000000E+00
  0.00000000E+00  0.00000000E+00  0.00000000E+00
  0.00000000E+00  0.00000000E+00  0.00000000E+00
  0.00000000E+00  0.00000000E+00  0.00000000E+00
  0.00000000E+00  0.00000000E+00  0.00000000E+00
  0.00000000E+00  0.00000000E+00  0.00000000E+00
  0.00000000E+00  0.00000000E+00  0.00000000E+00
  0.00000000E+00  0.00000000E+00  0.00000000E+00
  0.00000000E+00  0.00000000E+00  0.00000000E+00
  0.00000000E+00  0.00000000E+00  0.00000000E+00
  0.00000000E+00  0.00000000E+00  0.00000000E+00
  0.00000000E+00  0.00000000E+00  0.00000000E+00
  0.00000000E+00  0.00000000E+00  0.00000000E+00
  0.00000000E+00  0.00000000E+00  0.00000000E+00
  0.00000000E+00  0.00000000E+00  0.00000000E+00
  0.00000000E+00  0.00000000E+00  0.00000000E+00
  0.00000000E+00  0.00000000E+00  0.00000000E+00
  0.00000000E+00  0.00000000E+00  0.00000000E+00
  0.00000000E+00  0.00000000E+00  0.00000000E+00
  0.00000000E+00  0.00000000E+00  0.00000000E+00
  0.00000000E+00  0.00000000E+00  0.00000000E+00
  0.00000000E+00  0.00000000E+00  0.00000000E+00
  0.00000000E+00  0.00000000E+00  0.00000000E+00
  0.00000000E+00  0.00000000E+00  0.00000000E+00
  0.00000000E+00  0.00000000E+00  0.00000000E+00
  0.00000000E+00  0.00000000E+00  0.00000000E+00
  0.00000000E+00  0.00000000E+00  0.00000000E+00
  0.00000000E+00  0.00000000E+00  0.00000000E+00
  0.00000000E+00  0.00000000E+00  0.00000000E+00
  0.00000000E+00  0.00000000E+00  0.00000000E+00
  0.00000000E+00  0.00000000E+00  0.00000000E+00
  0.00000000E+00  0.00000000E+00  0.00000000E+00
  0.00000000E+00  0.00000000E+00  0.00000000E+00
  0.00000000E+00  0.00000000E+00  0.00000000E+00
  0.00000000E+00  0.00000000E+00  0.00000000E+00
  0.00000000E+00  0.00000000E+00  0.00000000E+00
  0.00000000E+00  0.00000000E+00  0.00000000E+00
  0.00000000E+00  0.00000000E+00  0.00000000E+00
  0.00000000E+00  0.00000000E+00  0.00000000E+00
  0.00000000E+00  0.00000000E+00  0.00000000E+00
  0.00000000E+00  0.00000000E+00  0.00000000E+00
  0.00000000E+00  0.00000000E+00  0.00000000E+00
  0.00000000E+00  0.00000000E+00  0.00000000E+00
  0.00000000E+00  0.00000000E+00  0.00000000E+00
  0.00000000E+00  0.00000000E+00  0.00000000E+00
  0.00000000E+00  0.00000000E+00  0.00000000E+00
  0.00000000E+00  0.00000000E+00  0.00000000E+00
