#generated using str2pos                
    1.000000000000000     
    13.0246311978491320   -0.0029619961015039    0.0250831594006576
    -0.0029586879311974   13.0240476845617632   -0.0078695636013416
     0.0250974565263394   -0.0078757161569439   13.0083649836268123
   Ta   W 
    83    45
Direct
  0.3752697095205544  0.1296513909141962  0.1270265515332628
  0.7532668206193766  0.2490735576039006  0.2482644808842509
 -0.0031589285942375  0.2510251706890173  0.2473054320051523
  0.2493104193347082  0.5042398200123616  0.2492474221430352
  0.4965193079553010  0.5048784971246195  0.2490827577258959
  0.3771314507078930  0.3721292984250426  0.1255052324346409
  0.7522461135583248  0.4954931972695222  0.2477916482038356
  0.6209344200320799  0.3732156112697020  0.1219636837614017
 -0.0000878120397658  0.4967580544329451  0.2497009518644940
  0.2524316716152546  0.7506913449745931  0.2519577705507255
  0.1197182238195120  0.6298046110927463  0.1238928055667429
  0.4939954546516541  0.7510709844512828  0.2490921466809966
  0.6264541714152393  0.6275353465623229  0.1221161118127592
  0.8746065592214050  0.6304891735501424  0.1251768336482565
  0.2493815275364972 -0.0028276752652917  0.2504347865025023
  0.1201950237170007  0.8716307179205975  0.1255073248191244
  0.4985509739486491 -0.0027217579827184  0.2472803352239706
  0.7508614776205030  0.0061250186608729  0.2482947503899481
  0.6283363021769685  0.8725852427886871  0.1218335591845824
 -0.0002145874245577  0.0047597064274744  0.2496486857740831
  0.8739871635206213  0.8723411646621194  0.1229596408384402
  0.1281688249118881  0.1305253535494789  0.3765553818296799
  0.4994261717783433  0.2481828200552984  0.5025015652809901
  0.3738598576029838  0.1285991063240526  0.3749870131937920
  0.7514207102062611  0.2499863148661155  0.4958270057680687
  0.6202156135471290  0.1250870936791839  0.3746792923830369
  0.1288757746229963  0.3723324695186753  0.3782162531440416
  0.3731515060090155  0.3737637997613645  0.3763750039300991
  0.7528343684817357  0.4955224015166969  0.4973450713800190
  0.6197064726283258  0.3751659691357995  0.3734357813485981
 -0.0004172440597794  0.5009971402113896  0.4963889884824228
  0.2499733179169947  0.7525111465487416  0.4965061176925571
  0.4956745408647393  0.7508008088528403  0.4965540041407207
  0.6269354290360519  0.6267554346740822  0.3745368305418205
  0.0067207669759835  0.7522407118855898  0.5000605169360836
  0.8735935314082410  0.6305624759942223  0.3721637276401396
  0.2489409082635508 -0.0014695472996890  0.5021850302107536
  0.7531629875542282  0.0044979275231268  0.4964647556304910
  0.6277097380574178  0.8744436240971052  0.3749088279743309
  0.0031658802453335 -0.0005000477842190  0.5005921484673668
  0.8735917011894015  0.8718206730259190  0.3721470535833434
  0.2486964312421282  0.2442813586892915  0.7503686614073384
  0.6247055155852157  0.1229914515146960  0.6293937207686460
  0.0028652182564631  0.2473024528506595  0.7524717825513637
  0.8739254285881325  0.1251083396349215  0.6280954564494059
  0.1283018171438044  0.3757035652701555  0.6229440543445853
  0.5007220824052507  0.5022520268248836  0.7523501879621760
  0.3736213901466919  0.3758273820392776  0.6244900877495766
  0.7521358217286501  0.4989349440364498  0.7534071281115842
  0.6233722339618840  0.3724115096953525  0.6274141195921566
 -0.0037391870274111  0.4992153170024345  0.7529167313637308
  0.8767495298450280  0.3705326283997569  0.6249652801760888
  0.2510260692919390  0.7537753360718318  0.7528891128703777
  0.1293020805715108  0.6205127839575144  0.6263059815423097
  0.4965853487788961  0.7486455008185245  0.7532250939976494
  0.3732375202588197  0.6205140175477313  0.6241700509001923
  0.6259401961566738  0.6266518541943501  0.6234437788891372
  0.0032719168909128  0.7516919781668031  0.7500672858332663
  0.8736462226752267  0.6281856958837253  0.6238994632756711
  0.2486517012973429 -0.0001506958402242  0.7504515839120864
  0.3793421960692418  0.8776033540782437  0.6256225634901241
  0.6260770586674242  0.8766755242675773  0.6262289705557823
  0.0058661263784647 -0.0008928241483416  0.7505276353416036
  0.8709159193923643  0.8747772603570100  0.6266583267647258
  0.2445824751821657  0.2480388972391298  0.0005776255474017
  0.3803019334542903  0.1260776565360674  0.8752146506609622
  0.6257091830084449  0.1243828044573490  0.8738773961002537
 -0.0006092797206989  0.2495795573380074  0.0024271568053327
  0.8685228445374638  0.1228146786818463  0.8743969469092024
  0.2500401570081916  0.5014431766169831  0.0033116857415781
  0.1278197478157812  0.3774209683213235  0.8731210663026040
  0.3772156402938055  0.3734013069776418  0.8754746392467168
  0.7540022856112319  0.4974584648669473 -0.0018431168499880
  0.6224775419528863  0.3699963423783399  0.8769924611019986
 -0.0032726800525756  0.4958983406798030  0.0006928617905092
  0.2537275784320351  0.7513289958559221 -0.0006869632616454
  0.1248831943226427  0.6237122552598469  0.8757963350882764
  0.6252699300317579  0.6273585447116846  0.8780317497448842
  0.2489590556086092 -0.0017463854249721 -0.0008253329734050
  0.4984923752101470 -0.0023004329945164  0.0023287033553089
  0.6280746893766166  0.8751537686829820  0.8747655854375169
  0.0020528850950776  0.0035647887508957 -0.0001642672786883
  0.8711637513827918  0.8753238273143193  0.8762630431187983
  0.2466795679940022  0.2512159534917746  0.2482239816672218
  0.1258383398837920  0.1249386044740047  0.1275570947026576
  0.5007494515627070  0.2493634564638739  0.2498701115459602
  0.6236615353145238  0.1264149626268224  0.1219190296810310
  0.8724090160976160  0.1240806317973703  0.1217567323208817
  0.1261606731871177  0.3754561925597424  0.1270112924869548
  0.8728447383853060  0.3737940930475845  0.1231754590943855
  0.3763106082478929  0.6246276363299516  0.1229675911515096
  0.7487307790105200  0.7509824451501956  0.2481951057039108
  0.0026745614948335  0.7510085520001687  0.2517904874831558
  0.3753651717028258  0.8749950026811120  0.1238942550269252
  0.2509761686796821  0.2476547704053928  0.5035747560001871
 -0.0003190555021498  0.2486326356828313  0.4994608944202620
  0.8775222234327726  0.1257158162180171  0.3758901635745891
  0.2499864626547847  0.5022771771885274  0.4971386442139466
  0.4993624793613178  0.5009566868901182  0.4984915601563813
  0.8771332060872796  0.3747625558538204  0.3753002370201102
  0.1246680894810447  0.6244698073633024  0.3744418486197969
  0.3747959844233943  0.6227665870570254  0.3768952830457435
  0.7498165299686977  0.7506421278310311  0.4996599550700996
  0.1237461448387372  0.8760891153283545  0.3728964942113829
  0.4978210501900758  0.0001397025498533  0.4996984406948871
  0.3764804985554527  0.8779534401177811  0.3766553081803246
  0.1257939652182479  0.1273089479636099  0.6227168364504180
  0.4982220141396114  0.2485119751339294  0.7486990483787441
  0.3776318649328063  0.1245715024013615  0.6255511512666844
  0.7509594183032011  0.2508782223539844  0.7513696969238569
  0.2518318164884507  0.5001064132943783  0.7522533772391004
  0.7506718140137590  0.7480007776243579  0.7512290984139223
  0.1265048883426342  0.8747153019484181  0.6254492787405380
  0.4977989022917516 -0.0016787995671789  0.7517537901088784
  0.7499919326203466 -0.0004290049334776  0.7499633385685225
  0.1250222446666646  0.1245998070682743  0.8754863740491059
  0.5008838280447736  0.2475269601815082  0.0008733805125658
  0.7517670890031872  0.2497126847598168  0.0025389289016906
  0.4981227660016916  0.5025195616168980  0.0002301836634273
  0.8724634422011149  0.3707226416319823  0.8744602363271917
  0.4959238898284815  0.7509979717451095  0.0000324009335474
  0.3760067301507043  0.6231741554116684  0.8761638594668232
  0.7502014428062417  0.7485838839068274 -0.0018276274074811
  0.0002129801870775  0.7505629470731747 -0.0032099845393012
  0.8741653231721837  0.6286535132801874  0.8764992060326698
  0.1235962109461839  0.8728325673343494  0.8775875065136969
  0.3782829063391678  0.8758675779822783  0.8748190213562166
  0.7494520382403477  0.0020899693977440  0.0023236064832209
 
  0.00000000E+00  0.00000000E+00  0.00000000E+00
  0.00000000E+00  0.00000000E+00  0.00000000E+00
  0.00000000E+00  0.00000000E+00  0.00000000E+00
  0.00000000E+00  0.00000000E+00  0.00000000E+00
  0.00000000E+00  0.00000000E+00  0.00000000E+00
  0.00000000E+00  0.00000000E+00  0.00000000E+00
  0.00000000E+00  0.00000000E+00  0.00000000E+00
  0.00000000E+00  0.00000000E+00  0.00000000E+00
  0.00000000E+00  0.00000000E+00  0.00000000E+00
  0.00000000E+00  0.00000000E+00  0.00000000E+00
  0.00000000E+00  0.00000000E+00  0.00000000E+00
  0.00000000E+00  0.00000000E+00  0.00000000E+00
  0.00000000E+00  0.00000000E+00  0.00000000E+00
  0.00000000E+00  0.00000000E+00  0.00000000E+00
  0.00000000E+00  0.00000000E+00  0.00000000E+00
  0.00000000E+00  0.00000000E+00  0.00000000E+00
  0.00000000E+00  0.00000000E+00  0.00000000E+00
  0.00000000E+00  0.00000000E+00  0.00000000E+00
  0.00000000E+00  0.00000000E+00  0.00000000E+00
  0.00000000E+00  0.00000000E+00  0.00000000E+00
  0.00000000E+00  0.00000000E+00  0.00000000E+00
  0.00000000E+00  0.00000000E+00  0.00000000E+00
  0.00000000E+00  0.00000000E+00  0.00000000E+00
  0.00000000E+00  0.00000000E+00  0.00000000E+00
  0.00000000E+00  0.00000000E+00  0.00000000E+00
  0.00000000E+00  0.00000000E+00  0.00000000E+00
  0.00000000E+00  0.00000000E+00  0.00000000E+00
  0.00000000E+00  0.00000000E+00  0.00000000E+00
  0.00000000E+00  0.00000000E+00  0.00000000E+00
  0.00000000E+00  0.00000000E+00  0.00000000E+00
  0.00000000E+00  0.00000000E+00  0.00000000E+00
  0.00000000E+00  0.00000000E+00  0.00000000E+00
  0.00000000E+00  0.00000000E+00  0.00000000E+00
  0.00000000E+00  0.00000000E+00  0.00000000E+00
  0.00000000E+00  0.00000000E+00  0.00000000E+00
  0.00000000E+00  0.00000000E+00  0.00000000E+00
  0.00000000E+00  0.00000000E+00  0.00000000E+00
  0.00000000E+00  0.00000000E+00  0.00000000E+00
  0.00000000E+00  0.00000000E+00  0.00000000E+00
  0.00000000E+00  0.00000000E+00  0.00000000E+00
  0.00000000E+00  0.00000000E+00  0.00000000E+00
  0.00000000E+00  0.00000000E+00  0.00000000E+00
  0.00000000E+00  0.00000000E+00  0.00000000E+00
  0.00000000E+00  0.00000000E+00  0.00000000E+00
  0.00000000E+00  0.00000000E+00  0.00000000E+00
  0.00000000E+00  0.00000000E+00  0.00000000E+00
  0.00000000E+00  0.00000000E+00  0.00000000E+00
  0.00000000E+00  0.00000000E+00  0.00000000E+00
  0.00000000E+00  0.00000000E+00  0.00000000E+00
  0.00000000E+00  0.00000000E+00  0.00000000E+00
  0.00000000E+00  0.00000000E+00  0.00000000E+00
  0.00000000E+00  0.00000000E+00  0.00000000E+00
  0.00000000E+00  0.00000000E+00  0.00000000E+00
  0.00000000E+00  0.00000000E+00  0.00000000E+00
  0.00000000E+00  0.00000000E+00  0.00000000E+00
  0.00000000E+00  0.00000000E+00  0.00000000E+00
  0.00000000E+00  0.00000000E+00  0.00000000E+00
  0.00000000E+00  0.00000000E+00  0.00000000E+00
  0.00000000E+00  0.00000000E+00  0.00000000E+00
  0.00000000E+00  0.00000000E+00  0.00000000E+00
  0.00000000E+00  0.00000000E+00  0.00000000E+00
  0.00000000E+00  0.00000000E+00  0.00000000E+00
  0.00000000E+00  0.00000000E+00  0.00000000E+00
  0.00000000E+00  0.00000000E+00  0.00000000E+00
  0.00000000E+00  0.00000000E+00  0.00000000E+00
  0.00000000E+00  0.00000000E+00  0.00000000E+00
  0.00000000E+00  0.00000000E+00  0.00000000E+00
  0.00000000E+00  0.00000000E+00  0.00000000E+00
  0.00000000E+00  0.00000000E+00  0.00000000E+00
  0.00000000E+00  0.00000000E+00  0.00000000E+00
  0.00000000E+00  0.00000000E+00  0.00000000E+00
  0.00000000E+00  0.00000000E+00  0.00000000E+00
  0.00000000E+00  0.00000000E+00  0.00000000E+00
  0.00000000E+00  0.00000000E+00  0.00000000E+00
  0.00000000E+00  0.00000000E+00  0.00000000E+00
  0.00000000E+00  0.00000000E+00  0.00000000E+00
  0.00000000E+00  0.00000000E+00  0.00000000E+00
  0.00000000E+00  0.00000000E+00  0.00000000E+00
  0.00000000E+00  0.00000000E+00  0.00000000E+00
  0.00000000E+00  0.00000000E+00  0.00000000E+00
  0.00000000E+00  0.00000000E+00  0.00000000E+00
  0.00000000E+00  0.00000000E+00  0.00000000E+00
  0.00000000E+00  0.00000000E+00  0.00000000E+00
  0.00000000E+00  0.00000000E+00  0.00000000E+00
  0.00000000E+00  0.00000000E+00  0.00000000E+00
  0.00000000E+00  0.00000000E+00  0.00000000E+00
  0.00000000E+00  0.00000000E+00  0.00000000E+00
  0.00000000E+00  0.00000000E+00  0.00000000E+00
  0.00000000E+00  0.00000000E+00  0.00000000E+00
  0.00000000E+00  0.00000000E+00  0.00000000E+00
  0.00000000E+00  0.00000000E+00  0.00000000E+00
  0.00000000E+00  0.00000000E+00  0.00000000E+00
  0.00000000E+00  0.00000000E+00  0.00000000E+00
  0.00000000E+00  0.00000000E+00  0.00000000E+00
  0.00000000E+00  0.00000000E+00  0.00000000E+00
  0.00000000E+00  0.00000000E+00  0.00000000E+00
  0.00000000E+00  0.00000000E+00  0.00000000E+00
  0.00000000E+00  0.00000000E+00  0.00000000E+00
  0.00000000E+00  0.00000000E+00  0.00000000E+00
  0.00000000E+00  0.00000000E+00  0.00000000E+00
  0.00000000E+00  0.00000000E+00  0.00000000E+00
  0.00000000E+00  0.00000000E+00  0.00000000E+00
  0.00000000E+00  0.00000000E+00  0.00000000E+00
  0.00000000E+00  0.00000000E+00  0.00000000E+00
  0.00000000E+00  0.00000000E+00  0.00000000E+00
  0.00000000E+00  0.00000000E+00  0.00000000E+00
  0.00000000E+00  0.00000000E+00  0.00000000E+00
  0.00000000E+00  0.00000000E+00  0.00000000E+00
  0.00000000E+00  0.00000000E+00  0.00000000E+00
  0.00000000E+00  0.00000000E+00  0.00000000E+00
  0.00000000E+00  0.00000000E+00  0.00000000E+00
  0.00000000E+00  0.00000000E+00  0.00000000E+00
  0.00000000E+00  0.00000000E+00  0.00000000E+00
  0.00000000E+00  0.00000000E+00  0.00000000E+00
  0.00000000E+00  0.00000000E+00  0.00000000E+00
  0.00000000E+00  0.00000000E+00  0.00000000E+00
  0.00000000E+00  0.00000000E+00  0.00000000E+00
  0.00000000E+00  0.00000000E+00  0.00000000E+00
  0.00000000E+00  0.00000000E+00  0.00000000E+00
  0.00000000E+00  0.00000000E+00  0.00000000E+00
  0.00000000E+00  0.00000000E+00  0.00000000E+00
  0.00000000E+00  0.00000000E+00  0.00000000E+00
  0.00000000E+00  0.00000000E+00  0.00000000E+00
  0.00000000E+00  0.00000000E+00  0.00000000E+00
  0.00000000E+00  0.00000000E+00  0.00000000E+00
  0.00000000E+00  0.00000000E+00  0.00000000E+00
  0.00000000E+00  0.00000000E+00  0.00000000E+00
  0.00000000E+00  0.00000000E+00  0.00000000E+00
