#generated using str2pos                
    1.000000000000000     
    12.8442298468725351   -0.0048195321141211    0.0028631073424105
    -0.0048191904192514   12.8466971681699338   -0.0037500341898650
     0.0028631372614915   -0.0037497328205687   12.8491419004293697
   Ta   W 
    45    83
Direct
  0.2511030976407116  0.2487579985145841  0.2499012158765709
  0.5006054747831009  0.4982956109705037  0.2522664765589068
 -0.0005940589197167  0.4989255097406456  0.2488137093237879
  0.3736887283644891  0.6245685257062974  0.1256154635921455
  0.7489835934411720  0.7496584493521464  0.2511028860610761
 -0.0006241379997415  0.7498913436561346  0.2522527950066430
  0.8737822084257940  0.6263735476780624  0.1241007335593871
  0.2490225712795009  0.0034971895119459  0.2511831078939007
  0.1245549206528256  0.8758432122419958  0.1231206069558706
  0.3734764668010317  0.8742950880777787  0.1265020312616052
  0.8751500709855597  0.8776284065335640  0.1224286608130263
  0.7481421446283602  0.2513279555170430  0.5005280387944823
  0.6229199683935410  0.1251583908386373  0.3735748670767877
  0.8754457555490072  0.1264218054624864  0.3723507569602674
  0.1258525132351574  0.3746748095528106  0.3772065122561272
  0.7470455429463233  0.4997292407691744  0.4977916800424998
  0.1273830616122068  0.6241220486522809  0.3774205207906690
  0.3759442969564001  0.8744791701560528  0.3761446364059866
  0.7520097407715094  0.0009952320606079  0.5020812893629356
  0.6222678631374970  0.8757103865328217  0.3752583568849151
  0.0003613321532685 -0.0000073668329787  0.5002563083201165
  0.1268520844656348  0.3734487450033272  0.6238542901377966
  0.0009069107954601  0.4973096308234400  0.7527797582572112
  0.8759693086250754  0.3737640691830904  0.6252416794023915
  0.1266130509777706  0.6254729958358407  0.6244111793112109
  0.4993018815466987  0.7514302254790237  0.7485844480676767
  0.7490717470458190  0.7536221315199967  0.7492577123515503
  0.8757985338365623  0.6256843636204311  0.6245166279886006
  0.2520590695179351  0.0005574283907907  0.7495185528319380
  0.1257076373347456  0.8739034755871244  0.6254955416723343
  0.6238001747497108  0.8773120278131040  0.6234543905271427
  0.1249797044928124  0.1245374560051889  0.8748554385025499
  0.4998764178561771  0.2468169097444757  0.0013436552998736
  0.7504678223572481  0.2483635600709924  0.0005655287535776
 -0.0006551363177785  0.2499877643862577  0.0008301867668898
  0.3747991717349629  0.3750375744572751  0.8736956381200119
  0.7502532030923293  0.4968300920053043  0.0022034688864115
  0.6228261387275562  0.3748919405585155  0.8721926981281189
  0.0009708889108974  0.4964013837365681  0.0013815314512259
  0.1271278181418033  0.6269076639276033  0.8749507376333326
  0.5011371768303441  0.7530512047548017 -0.0008930428472161
  0.3732953598522489  0.6226711283289755  0.8748128640950987
  0.6247495421816959  0.6226962537859976  0.8744553772529489
  0.8750071131426300  0.6276379671673443  0.8749036522839360
  0.5010972537176464  0.0010665044535977 -0.0012244581474263
  0.1241323107060449  0.1242918894361941  0.1239661523520817
  0.4990798460963954  0.2513256144004615  0.2498715836250131
  0.3752759319264822  0.1252663294014306  0.1253941225885098
  0.7494603835742192  0.2511244365606513  0.2485573362308304
  0.6259097359983530  0.1242578805860144  0.1269670253155769
  0.0002834213961227  0.2500550057095065  0.2485047989527509
  0.8748007213944339  0.1232213976338714  0.1259892190416063
  0.2515652136682327  0.4978537402204642  0.2499878746030331
  0.1269322177299650  0.3738573654794212  0.1259398272684764
  0.3744647214945422  0.3752793253139295  0.1247819419366934
  0.7483872356781182  0.4990389036118797  0.2511102183010947
  0.6244023245152764  0.3736485379606036  0.1270060642965455
  0.8739632833701133  0.3727901215819771  0.1279154378027953
  0.2490443986148522  0.7495784290746597  0.2516068069514908
  0.1276885318551536  0.6258719524062551  0.1248562899130280
  0.5014962270886734  0.7475985852699085  0.2503249143856168
  0.6241460317674115  0.6246107548801225  0.1255151178105419
  0.4991566372059287  0.0022375742896671  0.2483614028366360
  0.7496812434752246  0.0006352974561941  0.2479108952500385
  0.6258739559644753  0.8766416805771918  0.1259498219582522
  0.0009138669544515  0.0012332287220476  0.2507090555468723
  0.2524579858696182  0.2486794435968473  0.4998387330151405
  0.1243720786001185  0.1261925343398565  0.3759329036061626
  0.4985612639212104  0.2511393818834098  0.5006565877052240
  0.3761324332605604  0.1253061715912975  0.3773788748752742
  0.0006902345797317  0.2472247855505162  0.5001132973413691
  0.2547426377446787  0.4993198331153091  0.5001185017100701
  0.5001546057910309  0.4993756547162536  0.4992751134033339
  0.3752018512649710  0.3747091890979488  0.3771355858617919
  0.6233344466929074  0.3740332715211748  0.3747340000075784
 -0.0014183298518625  0.4996498103521360  0.4983321674399148
  0.8755408197989637  0.3737302864394672  0.3747545285579084
  0.2522047818931568  0.7498369506358719  0.5004454275285403
  0.4988487996196450  0.7474270240001489  0.5008981950522324
  0.3745246895077198  0.6253515492097332  0.3763162282163076
  0.7499399923157120  0.7491221309011121  0.4988931849046725
  0.6233104628238513  0.6253787707238638  0.3757998635452945
 -0.0007980192569348  0.7526136421457200  0.4986436166126959
  0.8747877537680024  0.6247916960404045  0.3767726356112175
  0.2497724444966206  0.0016907013856372  0.5004786670012968
  0.1265522964029104  0.8742401447861867  0.3761451612677148
  0.4981789744326722  0.0023409556427774  0.5017380901496896
  0.8744585476254968  0.8759953315733060  0.3746863054327407
  0.2514185489997858  0.2482385611545325  0.7487140985189660
  0.1262371982362097  0.1259810043214469  0.6255024029213044
  0.4999476417587816  0.2485327205020826  0.7477098914647535
  0.3760599414338915  0.1264195282319134  0.6240902307772633
  0.7495492628147985  0.2474822917770394  0.7498154977806331
  0.6227642868437614  0.1256218400480082  0.6260179200593806
 -0.0004367711953045  0.2482736677218413  0.7512432020017837
  0.8757730789761875  0.1260560368192268  0.6273424777923601
  0.2514240636432307  0.4985051689288546  0.7489439961198884
  0.4993531338275692  0.4994918516949534  0.7453702243144498
  0.3752624126308662  0.3744137797818493  0.6247736242055004
  0.7488948710142153  0.4987908778781298  0.7482626709242934
  0.6227104318810585  0.3745030574978501  0.6256534803863425
  0.2522218557102752  0.7524394436304639  0.7495458237411123
  0.3746599226943838  0.6237274153730101  0.6237443422989272
  0.6233792695470795  0.6244679038156080  0.6234864609705724
 -0.0004657631627544  0.7531969352313708  0.7503997306243656
  0.4994191564986208  0.0016946381060799  0.7506812169763237
  0.3748241392513869  0.8758555030125408  0.6230112043994758
  0.7504979941929667  0.0016800986412589  0.7511513223158690
 -0.0009037169276391  0.0008333264631799  0.7497023030575143
  0.8761223244411390  0.8752476981047227  0.6264146326347499
  0.2499550073416963  0.2499069812865062  0.0016043773224871
  0.3743435327404501  0.1261319395564575  0.8732383722000086
  0.6261763600562991  0.1246980871708218  0.8725762601273523
  0.8753602365689988  0.1226024254869671  0.8738844836716365
  0.2483469424672697  0.4978848382872834  0.0016904318030411
  0.1283818399613425  0.3732136197768988  0.8742722171961282
  0.5002821034785067  0.4983059338729585  0.0030875260413597
  0.8736050103036943  0.3724899606832847  0.8727728806706910
  0.2496472341224886  0.7508998106073846 -0.0009086926078483
  0.7480187374030897  0.7521542008894054 -0.0000588267299846
  0.0010186683474831  0.7516756574349354 -0.0006705265024223
  0.2509990743906219  0.0014541310779625 -0.0012709217729550
  0.1239804183165379  0.8751751888325847  0.8754900904485505
  0.3734093257212473  0.8757541971454642  0.8744813454876217
  0.7490777157754571  0.0014239833298730 -0.0016127871826872
  0.6269341863758829  0.8775864805063941  0.8742636259329586
 -0.0010012828866300  0.0018165138647615 -0.0013932294412383
  0.8760085861758178  0.8770563403010021  0.8755749327109258
 
  0.00000000E+00  0.00000000E+00  0.00000000E+00
  0.00000000E+00  0.00000000E+00  0.00000000E+00
  0.00000000E+00  0.00000000E+00  0.00000000E+00
  0.00000000E+00  0.00000000E+00  0.00000000E+00
  0.00000000E+00  0.00000000E+00  0.00000000E+00
  0.00000000E+00  0.00000000E+00  0.00000000E+00
  0.00000000E+00  0.00000000E+00  0.00000000E+00
  0.00000000E+00  0.00000000E+00  0.00000000E+00
  0.00000000E+00  0.00000000E+00  0.00000000E+00
  0.00000000E+00  0.00000000E+00  0.00000000E+00
  0.00000000E+00  0.00000000E+00  0.00000000E+00
  0.00000000E+00  0.00000000E+00  0.00000000E+00
  0.00000000E+00  0.00000000E+00  0.00000000E+00
  0.00000000E+00  0.00000000E+00  0.00000000E+00
  0.00000000E+00  0.00000000E+00  0.00000000E+00
  0.00000000E+00  0.00000000E+00  0.00000000E+00
  0.00000000E+00  0.00000000E+00  0.00000000E+00
  0.00000000E+00  0.00000000E+00  0.00000000E+00
  0.00000000E+00  0.00000000E+00  0.00000000E+00
  0.00000000E+00  0.00000000E+00  0.00000000E+00
  0.00000000E+00  0.00000000E+00  0.00000000E+00
  0.00000000E+00  0.00000000E+00  0.00000000E+00
  0.00000000E+00  0.00000000E+00  0.00000000E+00
  0.00000000E+00  0.00000000E+00  0.00000000E+00
  0.00000000E+00  0.00000000E+00  0.00000000E+00
  0.00000000E+00  0.00000000E+00  0.00000000E+00
  0.00000000E+00  0.00000000E+00  0.00000000E+00
  0.00000000E+00  0.00000000E+00  0.00000000E+00
  0.00000000E+00  0.00000000E+00  0.00000000E+00
  0.00000000E+00  0.00000000E+00  0.00000000E+00
  0.00000000E+00  0.00000000E+00  0.00000000E+00
  0.00000000E+00  0.00000000E+00  0.00000000E+00
  0.00000000E+00  0.00000000E+00  0.00000000E+00
  0.00000000E+00  0.00000000E+00  0.00000000E+00
  0.00000000E+00  0.00000000E+00  0.00000000E+00
  0.00000000E+00  0.00000000E+00  0.00000000E+00
  0.00000000E+00  0.00000000E+00  0.00000000E+00
  0.00000000E+00  0.00000000E+00  0.00000000E+00
  0.00000000E+00  0.00000000E+00  0.00000000E+00
  0.00000000E+00  0.00000000E+00  0.00000000E+00
  0.00000000E+00  0.00000000E+00  0.00000000E+00
  0.00000000E+00  0.00000000E+00  0.00000000E+00
  0.00000000E+00  0.00000000E+00  0.00000000E+00
  0.00000000E+00  0.00000000E+00  0.00000000E+00
  0.00000000E+00  0.00000000E+00  0.00000000E+00
  0.00000000E+00  0.00000000E+00  0.00000000E+00
  0.00000000E+00  0.00000000E+00  0.00000000E+00
  0.00000000E+00  0.00000000E+00  0.00000000E+00
  0.00000000E+00  0.00000000E+00  0.00000000E+00
  0.00000000E+00  0.00000000E+00  0.00000000E+00
  0.00000000E+00  0.00000000E+00  0.00000000E+00
  0.00000000E+00  0.00000000E+00  0.00000000E+00
  0.00000000E+00  0.00000000E+00  0.00000000E+00
  0.00000000E+00  0.00000000E+00  0.00000000E+00
  0.00000000E+00  0.00000000E+00  0.00000000E+00
  0.00000000E+00  0.00000000E+00  0.00000000E+00
  0.00000000E+00  0.00000000E+00  0.00000000E+00
  0.00000000E+00  0.00000000E+00  0.00000000E+00
  0.00000000E+00  0.00000000E+00  0.00000000E+00
  0.00000000E+00  0.00000000E+00  0.00000000E+00
  0.00000000E+00  0.00000000E+00  0.00000000E+00
  0.00000000E+00  0.00000000E+00  0.00000000E+00
  0.00000000E+00  0.00000000E+00  0.00000000E+00
  0.00000000E+00  0.00000000E+00  0.00000000E+00
  0.00000000E+00  0.00000000E+00  0.00000000E+00
  0.00000000E+00  0.00000000E+00  0.00000000E+00
  0.00000000E+00  0.00000000E+00  0.00000000E+00
  0.00000000E+00  0.00000000E+00  0.00000000E+00
  0.00000000E+00  0.00000000E+00  0.00000000E+00
  0.00000000E+00  0.00000000E+00  0.00000000E+00
  0.00000000E+00  0.00000000E+00  0.00000000E+00
  0.00000000E+00  0.00000000E+00  0.00000000E+00
  0.00000000E+00  0.00000000E+00  0.00000000E+00
  0.00000000E+00  0.00000000E+00  0.00000000E+00
  0.00000000E+00  0.00000000E+00  0.00000000E+00
  0.00000000E+00  0.00000000E+00  0.00000000E+00
  0.00000000E+00  0.00000000E+00  0.00000000E+00
  0.00000000E+00  0.00000000E+00  0.00000000E+00
  0.00000000E+00  0.00000000E+00  0.00000000E+00
  0.00000000E+00  0.00000000E+00  0.00000000E+00
  0.00000000E+00  0.00000000E+00  0.00000000E+00
  0.00000000E+00  0.00000000E+00  0.00000000E+00
  0.00000000E+00  0.00000000E+00  0.00000000E+00
  0.00000000E+00  0.00000000E+00  0.00000000E+00
  0.00000000E+00  0.00000000E+00  0.00000000E+00
  0.00000000E+00  0.00000000E+00  0.00000000E+00
  0.00000000E+00  0.00000000E+00  0.00000000E+00
  0.00000000E+00  0.00000000E+00  0.00000000E+00
  0.00000000E+00  0.00000000E+00  0.00000000E+00
  0.00000000E+00  0.00000000E+00  0.00000000E+00
  0.00000000E+00  0.00000000E+00  0.00000000E+00
  0.00000000E+00  0.00000000E+00  0.00000000E+00
  0.00000000E+00  0.00000000E+00  0.00000000E+00
  0.00000000E+00  0.00000000E+00  0.00000000E+00
  0.00000000E+00  0.00000000E+00  0.00000000E+00
  0.00000000E+00  0.00000000E+00  0.00000000E+00
  0.00000000E+00  0.00000000E+00  0.00000000E+00
  0.00000000E+00  0.00000000E+00  0.00000000E+00
  0.00000000E+00  0.00000000E+00  0.00000000E+00
  0.00000000E+00  0.00000000E+00  0.00000000E+00
  0.00000000E+00  0.00000000E+00  0.00000000E+00
  0.00000000E+00  0.00000000E+00  0.00000000E+00
  0.00000000E+00  0.00000000E+00  0.00000000E+00
  0.00000000E+00  0.00000000E+00  0.00000000E+00
  0.00000000E+00  0.00000000E+00  0.00000000E+00
  0.00000000E+00  0.00000000E+00  0.00000000E+00
  0.00000000E+00  0.00000000E+00  0.00000000E+00
  0.00000000E+00  0.00000000E+00  0.00000000E+00
  0.00000000E+00  0.00000000E+00  0.00000000E+00
  0.00000000E+00  0.00000000E+00  0.00000000E+00
  0.00000000E+00  0.00000000E+00  0.00000000E+00
  0.00000000E+00  0.00000000E+00  0.00000000E+00
  0.00000000E+00  0.00000000E+00  0.00000000E+00
  0.00000000E+00  0.00000000E+00  0.00000000E+00
  0.00000000E+00  0.00000000E+00  0.00000000E+00
  0.00000000E+00  0.00000000E+00  0.00000000E+00
  0.00000000E+00  0.00000000E+00  0.00000000E+00
  0.00000000E+00  0.00000000E+00  0.00000000E+00
  0.00000000E+00  0.00000000E+00  0.00000000E+00
  0.00000000E+00  0.00000000E+00  0.00000000E+00
  0.00000000E+00  0.00000000E+00  0.00000000E+00
  0.00000000E+00  0.00000000E+00  0.00000000E+00
  0.00000000E+00  0.00000000E+00  0.00000000E+00
  0.00000000E+00  0.00000000E+00  0.00000000E+00
  0.00000000E+00  0.00000000E+00  0.00000000E+00
  0.00000000E+00  0.00000000E+00  0.00000000E+00
  0.00000000E+00  0.00000000E+00  0.00000000E+00
  0.00000000E+00  0.00000000E+00  0.00000000E+00
