#generated using str2pos                
    1.000000000000000     
    12.9874578048729248   -0.0088086946401731   -0.0104491887751300
    -0.0088047799248984   12.9876001666467431   -0.0009920387347570
    -0.0104493503442382   -0.0009937171633198   12.9943241860606538
   Ta   W 
    77    51
Direct
  0.2502306929185708  0.2523128833388779  0.2502906957099226
  0.4995076718148068  0.2544268565390492  0.2511512614740024
  0.3769199482128910  0.1243864591563560  0.1242438937478527
  0.7514460231303810  0.2520279082605695  0.2542444027898689
  0.6261336594881128  0.1250979445983833  0.1248222546591233
 -0.0001780855992414  0.2484793162081239  0.2536511881001601
  0.8719467738465579  0.1250813516499881  0.1225588171071408
  0.2522649658379847  0.4997514121801693  0.2514695233256810
  0.1194779421173755  0.3767862519966025  0.1240961501304543
  0.4982247608232885  0.4995220580618379  0.2511874986708916
  0.7509792745611211  0.4997104325072658  0.2529330079424053
  0.6274732878460377  0.3737149097444595  0.1214976412608202
  0.8762083591829327  0.3750150522811987  0.1214896418067159
  0.2507274874716928  0.7477025572693448  0.2471024232948763
  0.1204996365957896  0.6195339402291740  0.1245876016435719
  0.4971565431833880  0.7459009505377248  0.2488341084210378
  0.7516922753650208  0.7462669230380943  0.2524236735901262
  0.6273579838140089  0.6218980147161133  0.1229866496883531
 -0.0010982606495835  0.7487052393220672  0.2506646615133293
  0.2484717775881120 -0.0020213324308756  0.2459213305648028
  0.6268616491539066  0.8781310892324482  0.1265463266101073
  0.0012197254057052 -0.0004277022078415  0.2499382064590225
  0.8709368791565908  0.8774298192624419  0.1250291430608906
  0.2518852732975596  0.2539773243119159  0.5020146446477119
  0.1293334399110188  0.1216288490336429  0.3782557389652955
  0.3780833724296813  0.1217620962836263  0.3771459407992863
  0.6228286235505797  0.1231278837797882  0.3769098245760634
  0.0019115199734764  0.2518384343273065  0.4989897342429406
  0.2510097365179811  0.4972356285301473  0.4973247155645495
  0.5004390884997719  0.5002280757413373  0.4974754852204481
  0.7489594814282357  0.5018574459270020  0.4964690601574193
  0.0019640855816117  0.4988274297428922  0.4971804520120499
  0.7511603982092909  0.7491250848778561  0.4994182098776809
 -0.0028041254661873  0.7494949557244720  0.4978793387793550
  0.1294097902066549  0.8742649289203795  0.3787434506763526
  0.3762458803315036  0.8764273192608799  0.3790617571986617
  0.7548641528810238 -0.0021505786632739  0.5002159294513162
  0.6212242189787359  0.8775923965834380  0.3744926085716369
 -0.0046271893333873 -0.0017923528621128  0.4994225956972996
  0.2518904118658650  0.2543830890291329  0.7491099222250888
  0.1265820113175933  0.1200459624114928  0.6270772153300298
  0.4965591573992491  0.2526291154578388  0.7501014332769621
  0.6268754591818521  0.1269663307741935  0.6245443469745634
  0.0044912548794494  0.2531122280622321  0.7503936526524506
  0.8735232720835631  0.1266330463102338  0.6299529287869954
  0.2490931014699229  0.4969453018199137  0.7497186634130368
  0.5009433656105934  0.4986065751192453  0.7493694174005002
  0.7472557117142151  0.5038871715913497  0.7519561327508352
  0.6276634149290838  0.3716448640595711  0.6240342994426407
  0.0026605954855486  0.5006194736469162  0.7521218971930412
  0.8713975287243931  0.3729458532976976  0.6267076106091969
  0.1282188923738771  0.6292238582796942  0.6242872571656441
  0.3745057452082874  0.6310085753894371  0.6247329803061636
  0.7512437527687433  0.7491530140767350  0.7503700070457876
 -0.0021132583662228  0.7505654168997277  0.7535561916861204
  0.8764402349112482  0.6232509699811714  0.6252207353382599
  0.1288029524016055  0.8756483997364485  0.6260532845658283
  0.4986841814276111  0.0042063072008499  0.7494515174027734
  0.3738992836903456  0.8742772734302975  0.6236135563197857
  0.6220261262751650  0.8763098068736694  0.6244486605744898
  0.2499896096195050  0.2526522609735202 -0.0001360134562986
  0.1249354650943667  0.1225957654468983  0.8747524561765473
  0.3729304585941730  0.1234719290039709  0.8764784879453125
  0.6283176005382815  0.1267438477231994  0.8767509950230943
  0.8735444323115658  0.1264979100453790  0.8761368951039059
  0.2510368745289431  0.4993500460515213 -0.0021041530460774
  0.4982453637428559  0.5000141708837412 -0.0022611073594615
  0.8730899816829027  0.3735686725473172  0.8786832320977519
  0.2470944065297890  0.7500094240811481  0.0014970055259850
  0.4982383693730949  0.7490788399514111  0.0012546293470573
  0.3739732834019407  0.6299318371070706  0.8694773380366781
  0.7521886817048482  0.7472172030399488 -0.0029211558091355
 -0.0008428082953327  0.7503198635395771 -0.0018752385330074
  0.4977567987226840 -0.0019945093156739 -0.0003668742102241
  0.3719374393377801  0.8748290351883716  0.8705110721805444
  0.6249020488920308  0.8776026906685588  0.8736102815937153
  0.0020489594825305 -0.0032867517193942  0.0009730401402938
  0.1242267272138281  0.1262254368501722  0.1230488155492744
  0.3760169348091986  0.3733653929786243  0.1236294202343276
 -0.0012708862635432  0.4998650612132663  0.2521518219857066
  0.3740645660578159  0.6242712729543116  0.1233112909522759
  0.8756784082157616  0.6209863805376934  0.1239313842979385
  0.1243107410452741  0.8739863852008800  0.1240673012713646
  0.4982057980973603 -0.0011159371739714  0.2485533739299235
  0.3751534591005705  0.8768887653490250  0.1246134429152128
  0.7523782173950917  0.0006920118950886  0.2532462822516074
  0.4985517604996769  0.2526773361667597  0.5008304719445392
  0.7513375575371471  0.2503515376776576  0.4975773297623262
  0.8732532819954931  0.1250689186561547  0.3757678635924814
  0.1245972637000805  0.3752381826253923  0.3728517430909153
  0.3768234236970683  0.3737111171733701  0.3754763497350454
  0.6255627100741975  0.3721425106460607  0.3772354685861848
  0.8753661464717715  0.3748235217832569  0.3749550589601537
  0.2503025835235591  0.7474213182104591  0.4970091407749448
  0.1255177922053205  0.6254227827501148  0.3739001286894548
  0.5018708197087142  0.7470694950920488  0.4980531680590705
  0.3749311408953456  0.6276421785139022  0.3772483999218609
  0.6237430294014756  0.6265995181953616  0.3751073546959435
  0.8763770730479892  0.6232964301731112  0.3737151705160799
  0.2512212904541233  0.0012320754054338  0.5013642170336684
  0.5006086583254131  0.0013521476975622  0.5023944858891060
  0.8738288736349031  0.8750139568937634  0.3731929762606269
  0.3756076529009763  0.1229681903417568  0.6234120842570783
  0.7482027215617546  0.2519962309136375  0.7516977353836687
  0.1248814115746999  0.3755814594006951  0.6250015201771763
  0.3780560375034004  0.3752731635073152  0.6235013763190942
  0.2470727109648963  0.7503004501115749  0.7517942017851690
  0.5024087416939518  0.7492154627061391  0.7488132003627800
  0.6223023395580176  0.6273445383930188  0.6243918480189727
  0.2503480850510423  0.0010355794368401  0.7505703882039779
  0.7512277332914913 -0.0019881860350309  0.7494543514475150
 -0.0007094807763153 -0.0031708643866251  0.7520157349079279
  0.8752616386489321  0.8769686361142938  0.6279968918532681
  0.4982300578770723  0.2535298113378487 -0.0009655381806629
  0.7488874911796410  0.2514644068990408  0.0003142767483434
  0.0021803437520347  0.2489438176165057  0.0008832108833103
  0.1223491932710575  0.3745217871844552  0.8781204166805416
  0.3763532222441039  0.3751976025464296  0.8755519818018992
  0.7494720878336999  0.5018950185740805 -0.0016650439140896
  0.6273183076403464  0.3729522777744539  0.8763773296147123
 -0.0007283397388306  0.5021042921838149 -0.0018995472593659
  0.1252136258626515  0.6257717988036591  0.8749941243719376
  0.6238202322824657  0.6256540412907760  0.8745852191828012
  0.8748720403872927  0.6226077188878275  0.8768219134980976
  0.2470911126434504 -0.0024596366722060  0.0020369193550140
  0.1263390710746085  0.8771048428020416  0.8724518301769365
  0.7510657367733361 -0.0011306167341224 -0.0006202345203561
  0.8738399752236365  0.8785482538609926  0.8751791587181252
 
  0.00000000E+00  0.00000000E+00  0.00000000E+00
  0.00000000E+00  0.00000000E+00  0.00000000E+00
  0.00000000E+00  0.00000000E+00  0.00000000E+00
  0.00000000E+00  0.00000000E+00  0.00000000E+00
  0.00000000E+00  0.00000000E+00  0.00000000E+00
  0.00000000E+00  0.00000000E+00  0.00000000E+00
  0.00000000E+00  0.00000000E+00  0.00000000E+00
  0.00000000E+00  0.00000000E+00  0.00000000E+00
  0.00000000E+00  0.00000000E+00  0.00000000E+00
  0.00000000E+00  0.00000000E+00  0.00000000E+00
  0.00000000E+00  0.00000000E+00  0.00000000E+00
  0.00000000E+00  0.00000000E+00  0.00000000E+00
  0.00000000E+00  0.00000000E+00  0.00000000E+00
  0.00000000E+00  0.00000000E+00  0.00000000E+00
  0.00000000E+00  0.00000000E+00  0.00000000E+00
  0.00000000E+00  0.00000000E+00  0.00000000E+00
  0.00000000E+00  0.00000000E+00  0.00000000E+00
  0.00000000E+00  0.00000000E+00  0.00000000E+00
  0.00000000E+00  0.00000000E+00  0.00000000E+00
  0.00000000E+00  0.00000000E+00  0.00000000E+00
  0.00000000E+00  0.00000000E+00  0.00000000E+00
  0.00000000E+00  0.00000000E+00  0.00000000E+00
  0.00000000E+00  0.00000000E+00  0.00000000E+00
  0.00000000E+00  0.00000000E+00  0.00000000E+00
  0.00000000E+00  0.00000000E+00  0.00000000E+00
  0.00000000E+00  0.00000000E+00  0.00000000E+00
  0.00000000E+00  0.00000000E+00  0.00000000E+00
  0.00000000E+00  0.00000000E+00  0.00000000E+00
  0.00000000E+00  0.00000000E+00  0.00000000E+00
  0.00000000E+00  0.00000000E+00  0.00000000E+00
  0.00000000E+00  0.00000000E+00  0.00000000E+00
  0.00000000E+00  0.00000000E+00  0.00000000E+00
  0.00000000E+00  0.00000000E+00  0.00000000E+00
  0.00000000E+00  0.00000000E+00  0.00000000E+00
  0.00000000E+00  0.00000000E+00  0.00000000E+00
  0.00000000E+00  0.00000000E+00  0.00000000E+00
  0.00000000E+00  0.00000000E+00  0.00000000E+00
  0.00000000E+00  0.00000000E+00  0.00000000E+00
  0.00000000E+00  0.00000000E+00  0.00000000E+00
  0.00000000E+00  0.00000000E+00  0.00000000E+00
  0.00000000E+00  0.00000000E+00  0.00000000E+00
  0.00000000E+00  0.00000000E+00  0.00000000E+00
  0.00000000E+00  0.00000000E+00  0.00000000E+00
  0.00000000E+00  0.00000000E+00  0.00000000E+00
  0.00000000E+00  0.00000000E+00  0.00000000E+00
  0.00000000E+00  0.00000000E+00  0.00000000E+00
  0.00000000E+00  0.00000000E+00  0.00000000E+00
  0.00000000E+00  0.00000000E+00  0.00000000E+00
  0.00000000E+00  0.00000000E+00  0.00000000E+00
  0.00000000E+00  0.00000000E+00  0.00000000E+00
  0.00000000E+00  0.00000000E+00  0.00000000E+00
  0.00000000E+00  0.00000000E+00  0.00000000E+00
  0.00000000E+00  0.00000000E+00  0.00000000E+00
  0.00000000E+00  0.00000000E+00  0.00000000E+00
  0.00000000E+00  0.00000000E+00  0.00000000E+00
  0.00000000E+00  0.00000000E+00  0.00000000E+00
  0.00000000E+00  0.00000000E+00  0.00000000E+00
  0.00000000E+00  0.00000000E+00  0.00000000E+00
  0.00000000E+00  0.00000000E+00  0.00000000E+00
  0.00000000E+00  0.00000000E+00  0.00000000E+00
  0.00000000E+00  0.00000000E+00  0.00000000E+00
  0.00000000E+00  0.00000000E+00  0.00000000E+00
  0.00000000E+00  0.00000000E+00  0.00000000E+00
  0.00000000E+00  0.00000000E+00  0.00000000E+00
  0.00000000E+00  0.00000000E+00  0.00000000E+00
  0.00000000E+00  0.00000000E+00  0.00000000E+00
  0.00000000E+00  0.00000000E+00  0.00000000E+00
  0.00000000E+00  0.00000000E+00  0.00000000E+00
  0.00000000E+00  0.00000000E+00  0.00000000E+00
  0.00000000E+00  0.00000000E+00  0.00000000E+00
  0.00000000E+00  0.00000000E+00  0.00000000E+00
  0.00000000E+00  0.00000000E+00  0.00000000E+00
  0.00000000E+00  0.00000000E+00  0.00000000E+00
  0.00000000E+00  0.00000000E+00  0.00000000E+00
  0.00000000E+00  0.00000000E+00  0.00000000E+00
  0.00000000E+00  0.00000000E+00  0.00000000E+00
  0.00000000E+00  0.00000000E+00  0.00000000E+00
  0.00000000E+00  0.00000000E+00  0.00000000E+00
  0.00000000E+00  0.00000000E+00  0.00000000E+00
  0.00000000E+00  0.00000000E+00  0.00000000E+00
  0.00000000E+00  0.00000000E+00  0.00000000E+00
  0.00000000E+00  0.00000000E+00  0.00000000E+00
  0.00000000E+00  0.00000000E+00  0.00000000E+00
  0.00000000E+00  0.00000000E+00  0.00000000E+00
  0.00000000E+00  0.00000000E+00  0.00000000E+00
  0.00000000E+00  0.00000000E+00  0.00000000E+00
  0.00000000E+00  0.00000000E+00  0.00000000E+00
  0.00000000E+00  0.00000000E+00  0.00000000E+00
  0.00000000E+00  0.00000000E+00  0.00000000E+00
  0.00000000E+00  0.00000000E+00  0.00000000E+00
  0.00000000E+00  0.00000000E+00  0.00000000E+00
  0.00000000E+00  0.00000000E+00  0.00000000E+00
  0.00000000E+00  0.00000000E+00  0.00000000E+00
  0.00000000E+00  0.00000000E+00  0.00000000E+00
  0.00000000E+00  0.00000000E+00  0.00000000E+00
  0.00000000E+00  0.00000000E+00  0.00000000E+00
  0.00000000E+00  0.00000000E+00  0.00000000E+00
  0.00000000E+00  0.00000000E+00  0.00000000E+00
  0.00000000E+00  0.00000000E+00  0.00000000E+00
  0.00000000E+00  0.00000000E+00  0.00000000E+00
  0.00000000E+00  0.00000000E+00  0.00000000E+00
  0.00000000E+00  0.00000000E+00  0.00000000E+00
  0.00000000E+00  0.00000000E+00  0.00000000E+00
  0.00000000E+00  0.00000000E+00  0.00000000E+00
  0.00000000E+00  0.00000000E+00  0.00000000E+00
  0.00000000E+00  0.00000000E+00  0.00000000E+00
  0.00000000E+00  0.00000000E+00  0.00000000E+00
  0.00000000E+00  0.00000000E+00  0.00000000E+00
  0.00000000E+00  0.00000000E+00  0.00000000E+00
  0.00000000E+00  0.00000000E+00  0.00000000E+00
  0.00000000E+00  0.00000000E+00  0.00000000E+00
  0.00000000E+00  0.00000000E+00  0.00000000E+00
  0.00000000E+00  0.00000000E+00  0.00000000E+00
  0.00000000E+00  0.00000000E+00  0.00000000E+00
  0.00000000E+00  0.00000000E+00  0.00000000E+00
  0.00000000E+00  0.00000000E+00  0.00000000E+00
  0.00000000E+00  0.00000000E+00  0.00000000E+00
  0.00000000E+00  0.00000000E+00  0.00000000E+00
  0.00000000E+00  0.00000000E+00  0.00000000E+00
  0.00000000E+00  0.00000000E+00  0.00000000E+00
  0.00000000E+00  0.00000000E+00  0.00000000E+00
  0.00000000E+00  0.00000000E+00  0.00000000E+00
  0.00000000E+00  0.00000000E+00  0.00000000E+00
  0.00000000E+00  0.00000000E+00  0.00000000E+00
  0.00000000E+00  0.00000000E+00  0.00000000E+00
  0.00000000E+00  0.00000000E+00  0.00000000E+00
  0.00000000E+00  0.00000000E+00  0.00000000E+00
  0.00000000E+00  0.00000000E+00  0.00000000E+00
