#generated using str2pos                
    1.000000000000000     
    12.8508647497600421    0.0003084442342465    0.0169286979350508
     0.0003064811340583   12.8420887413383458   -0.0002747673908885
     0.0169307089537508   -0.0002721029898128   12.8498961096560596
   Ta   W 
    45    83
Direct
  0.2508544233750841  0.2489315606601145  0.2513064885191144
  0.6260509569476800  0.1236966164566531  0.1259504534954773
  0.8737315552839451  0.1260294134933742  0.1234721208468883
  0.2533180526037239  0.4988584324252334  0.2503277885630673
  0.1230687609809993  0.3752274400707422  0.1224325884212892
  0.4994629713760944  0.5012125942827037  0.2490087122627132
  0.2526116721209895  0.7520755594015928  0.2493913654838448
  0.1217185231389182  0.6233048225987757  0.1246133505742307
  0.8754147029610450  0.6257684024235253  0.1258782338014985
  0.2503452751783684  0.0003633081669048  0.2499487203232958
  0.6263784778174978  0.8761797540639393  0.1259435588307159
  0.0024851124920656  0.0001544063448646  0.2524032962590302
  0.8734282912713938  0.8741147794403283  0.1242627012901557
  0.2488907519323774  0.2489149567510124  0.4993204769324165
  0.6238094038183353  0.1256981575122819  0.3746706718245974
  0.0015952130662346  0.2489566433264584  0.5008443769913643
  0.6260685051427677  0.3742837263061785  0.3762820590685816
 -0.0015076220504506  0.4980031045633125  0.5016121194786698
  0.8721919106706667  0.3751011517316767  0.3731296187698860
  0.1243512893199946  0.6259183737725201  0.3758155358605521
  0.7493944957744594  0.7501325237138152  0.5002017328555440
  0.7514913428374846 -0.0026365378612493  0.5008821955226076
 -0.0007217705373238  0.0012841895675325  0.4986568183867350
  0.6240013971752223  0.1264644795439415  0.6257658233116453
  0.3765573439486409  0.3755618687410194  0.6261445866084633
  0.6244350713872281  0.3744838393720991  0.6248751699281102
 -0.0021890707862286  0.4996175572723833  0.7494190383704543
  0.1282092806271481  0.6260720888774697  0.6235762776183409
  0.5025646204272805  0.7506123695195415  0.7515469833531333
  0.3747967700768675  0.6240832426997500  0.6243327090870202
  0.7486143522528447  0.7490599161348688  0.7482751660997070
 -0.0028416934065972  0.7474378891601666  0.7498332361324332
  0.1276505055015073  0.8749874507439428  0.6252158247382112
  0.3743331600431428  0.8758799974039628  0.6238292992955030
  0.1244752734907585  0.1264349691940841  0.8740058058811377
  0.4995239488382203  0.2509354112190299 -0.0010204584557871
  0.8745635378003483  0.1253879702204808  0.8749799135721403
  0.1253730641448746  0.3738130251445732  0.8762066101025234
  0.5006890710034396  0.4994989227032747  0.0004003167704208
  0.7481414022117445  0.4988803459964617 -0.0012679988308793
  0.2521983186934303  0.7506448541309485  0.0007803698068560
  0.4989470093506566  0.7491451650872103 -0.0007563228311573
  0.2525808433260860  0.0000376433903132  0.0020700774070257
  0.1239982603881338  0.8766959977380526  0.8735102210220058
  0.8745135336907597  0.8773152299469159  0.8771248399381725
  0.1235248269698781  0.1273422239678340  0.1231942897761797
  0.4980618539936881  0.2509261389572012  0.2483938521805536
  0.3773497530559065  0.1252625220867282  0.1249420825963767
  0.7504108354164931  0.2510968262036369  0.2487079914084253
  0.0005693612190688  0.2488030771964545  0.2505317874715139
  0.3742408709728784  0.3737516221421077  0.1237977930660845
  0.7480822778088477  0.5009529582581770  0.2486162545717304
  0.6264823025768687  0.3731582759179790  0.1262290295422438
 -0.0013866074767006  0.4991940002842500  0.2509774837293893
  0.8754830150289593  0.3745354934326685  0.1253639044299301
  0.5003037690769996  0.7494788572444937  0.2507579871728688
  0.3754582506434701  0.6250451257986799  0.1248656448357963
  0.7490068581513472  0.7490153744368677  0.2530793116533590
  0.6271374747794135  0.6269470199376785  0.1267302425364398
 -0.0000428088657752  0.7520286261427983  0.2515975448386308
  0.1229415057690655  0.8741100820108751  0.1242938857246434
  0.4980554040237078 -0.0008343625670142  0.2511698376747812
  0.3790453180164725  0.8763609407251058  0.1265492579280329
  0.7508943450292948 -0.0007171230545679  0.2528728685684221
  0.1258665992351034  0.1246627727847274  0.3754707152940177
  0.4971468541475273  0.2489685913708799  0.4997895672216158
  0.3779193052803387  0.1236298671903019  0.3762445191227479
  0.7522680283999836  0.2488102473602254  0.5011474518923066
  0.8729547223881768  0.1267204888486200  0.3733734098588615
  0.2501079138784645  0.4977208865356860  0.4987044903766155
  0.1235856656561331  0.3760216727703642  0.3736240273053322
  0.5004277820906381  0.5015667657711171  0.4983159452874194
  0.3772953205291327  0.3745810581117851  0.3769498387518788
  0.7501354041357852  0.5027155849376396  0.5007543854149343
  0.2518588430951569  0.7511303835254873  0.4972474744467019
  0.5022469222804355  0.7502602376928874  0.4986921837655686
  0.3766451509790614  0.6264824435560720  0.3776597250249957
  0.6249601454598491  0.6251064004714796  0.3752949748818739
 -0.0025896450897218  0.7507049038392342  0.4995933703048342
  0.8742163105527849  0.6244195372949036  0.3731734773683414
  0.2504645313533705  0.0020127913118027  0.4985878734686147
  0.1260489984128279  0.8731076656732222  0.3771918697612582
  0.4997901074916132 -0.0009610200009679  0.4998783399030934
  0.3775255913233440  0.8754073403231867  0.3771433679510471
  0.6236509637378158  0.8748466484061032  0.3734730342240519
  0.8748589802462762  0.8730934226513026  0.3733946924164325
  0.2508073561955247  0.2494214869275792  0.7488929732122035
  0.1261263980797338  0.1237434239381939  0.6275748748452087
  0.4993059760085587  0.2490539566278494  0.7526188095902360
  0.3760066390058974  0.1243428401978120  0.6260032704387879
  0.7499490862373531  0.2507908709258025  0.7509133418083914
 -0.0012429209537080  0.2513078275163628  0.7475668101121360
  0.8738900368883169  0.1259340634899910  0.6276034911244366
  0.2499934706493382  0.4989527991900790  0.7515102989683859
  0.1267333367912281  0.3745698359381092  0.6273794968988735
  0.5008624522439976  0.5006222582450051  0.7521206684141538
  0.7500809034742241  0.5002033613740337  0.7509193624730626
  0.8717662997634982  0.3735836619580687  0.6255842924493116
  0.2515178255659313  0.7492612889125296  0.7525382641059501
  0.6236414039882781  0.6222171474052060  0.6236895359200125
  0.8735007671269078  0.6233668433960919  0.6238742442727058
  0.2524886648143972  0.0023368861217960  0.7502841135976950
  0.5000928247941232  0.0004040416010164  0.7511084776786320
  0.7481913413148691 -0.0001265868794110  0.7489292718321476
  0.6228943803423354  0.8768447541812417  0.6250912682862784
 -0.0007891662440536  0.0012140466544137  0.7468747206497806
  0.8759206587745615  0.8756676198808153  0.6257750085920187
  0.2526602657873741  0.2490242808924282  0.0007192954213086
  0.3753045644338965  0.1257576304958302  0.8735359658763928
  0.7482758514252171  0.2527798455367880 -0.0012799086306948
  0.6252413083391918  0.1246851451268306  0.8741510688557934
 -0.0013404962860350  0.2512420476815392  0.0001374961438997
  0.2521839461140751  0.5007711107859003 -0.0009261891634916
  0.3734610973198044  0.3745858434736258  0.8730422985771864
  0.6252061223749956  0.3738471660984195  0.8722656371703930
 -0.0028944080451003  0.4997307746291436 -0.0023106744297999
  0.8742311087797252  0.3729704698698986  0.8747911608610959
  0.1255954682487966  0.6236660997185359  0.8755150118665647
  0.3739840675282273  0.6230792303656866  0.8729265106569413
  0.7476218502069685  0.7477024382620956 -0.0014657564615322
  0.6250912446729487  0.6238392407593273  0.8739530659516729
  0.0009152089695898  0.7491292833243014 -0.0008750082874284
  0.8739106405494117  0.6244019390555459  0.8767175910125785
  0.4986919635666635  0.0007665966501129 -0.0012737353022282
  0.3758618597799110  0.8772246369464576  0.8731772977397699
  0.7477217157974729  0.0006204635427077 -0.0017469874236583
  0.6259014573803444  0.8774691117601887  0.8763571260879863
  0.0020660307133739  0.0009042344212532  0.0021578811711451
 
  0.00000000E+00  0.00000000E+00  0.00000000E+00
  0.00000000E+00  0.00000000E+00  0.00000000E+00
  0.00000000E+00  0.00000000E+00  0.00000000E+00
  0.00000000E+00  0.00000000E+00  0.00000000E+00
  0.00000000E+00  0.00000000E+00  0.00000000E+00
  0.00000000E+00  0.00000000E+00  0.00000000E+00
  0.00000000E+00  0.00000000E+00  0.00000000E+00
  0.00000000E+00  0.00000000E+00  0.00000000E+00
  0.00000000E+00  0.00000000E+00  0.00000000E+00
  0.00000000E+00  0.00000000E+00  0.00000000E+00
  0.00000000E+00  0.00000000E+00  0.00000000E+00
  0.00000000E+00  0.00000000E+00  0.00000000E+00
  0.00000000E+00  0.00000000E+00  0.00000000E+00
  0.00000000E+00  0.00000000E+00  0.00000000E+00
  0.00000000E+00  0.00000000E+00  0.00000000E+00
  0.00000000E+00  0.00000000E+00  0.00000000E+00
  0.00000000E+00  0.00000000E+00  0.00000000E+00
  0.00000000E+00  0.00000000E+00  0.00000000E+00
  0.00000000E+00  0.00000000E+00  0.00000000E+00
  0.00000000E+00  0.00000000E+00  0.00000000E+00
  0.00000000E+00  0.00000000E+00  0.00000000E+00
  0.00000000E+00  0.00000000E+00  0.00000000E+00
  0.00000000E+00  0.00000000E+00  0.00000000E+00
  0.00000000E+00  0.00000000E+00  0.00000000E+00
  0.00000000E+00  0.00000000E+00  0.00000000E+00
  0.00000000E+00  0.00000000E+00  0.00000000E+00
  0.00000000E+00  0.00000000E+00  0.00000000E+00
  0.00000000E+00  0.00000000E+00  0.00000000E+00
  0.00000000E+00  0.00000000E+00  0.00000000E+00
  0.00000000E+00  0.00000000E+00  0.00000000E+00
  0.00000000E+00  0.00000000E+00  0.00000000E+00
  0.00000000E+00  0.00000000E+00  0.00000000E+00
  0.00000000E+00  0.00000000E+00  0.00000000E+00
  0.00000000E+00  0.00000000E+00  0.00000000E+00
  0.00000000E+00  0.00000000E+00  0.00000000E+00
  0.00000000E+00  0.00000000E+00  0.00000000E+00
  0.00000000E+00  0.00000000E+00  0.00000000E+00
  0.00000000E+00  0.00000000E+00  0.00000000E+00
  0.00000000E+00  0.00000000E+00  0.00000000E+00
  0.00000000E+00  0.00000000E+00  0.00000000E+00
  0.00000000E+00  0.00000000E+00  0.00000000E+00
  0.00000000E+00  0.00000000E+00  0.00000000E+00
  0.00000000E+00  0.00000000E+00  0.00000000E+00
  0.00000000E+00  0.00000000E+00  0.00000000E+00
  0.00000000E+00  0.00000000E+00  0.00000000E+00
  0.00000000E+00  0.00000000E+00  0.00000000E+00
  0.00000000E+00  0.00000000E+00  0.00000000E+00
  0.00000000E+00  0.00000000E+00  0.00000000E+00
  0.00000000E+00  0.00000000E+00  0.00000000E+00
  0.00000000E+00  0.00000000E+00  0.00000000E+00
  0.00000000E+00  0.00000000E+00  0.00000000E+00
  0.00000000E+00  0.00000000E+00  0.00000000E+00
  0.00000000E+00  0.00000000E+00  0.00000000E+00
  0.00000000E+00  0.00000000E+00  0.00000000E+00
  0.00000000E+00  0.00000000E+00  0.00000000E+00
  0.00000000E+00  0.00000000E+00  0.00000000E+00
  0.00000000E+00  0.00000000E+00  0.00000000E+00
  0.00000000E+00  0.00000000E+00  0.00000000E+00
  0.00000000E+00  0.00000000E+00  0.00000000E+00
  0.00000000E+00  0.00000000E+00  0.00000000E+00
  0.00000000E+00  0.00000000E+00  0.00000000E+00
  0.00000000E+00  0.00000000E+00  0.00000000E+00
  0.00000000E+00  0.00000000E+00  0.00000000E+00
  0.00000000E+00  0.00000000E+00  0.00000000E+00
  0.00000000E+00  0.00000000E+00  0.00000000E+00
  0.00000000E+00  0.00000000E+00  0.00000000E+00
  0.00000000E+00  0.00000000E+00  0.00000000E+00
  0.00000000E+00  0.00000000E+00  0.00000000E+00
  0.00000000E+00  0.00000000E+00  0.00000000E+00
  0.00000000E+00  0.00000000E+00  0.00000000E+00
  0.00000000E+00  0.00000000E+00  0.00000000E+00
  0.00000000E+00  0.00000000E+00  0.00000000E+00
  0.00000000E+00  0.00000000E+00  0.00000000E+00
  0.00000000E+00  0.00000000E+00  0.00000000E+00
  0.00000000E+00  0.00000000E+00  0.00000000E+00
  0.00000000E+00  0.00000000E+00  0.00000000E+00
  0.00000000E+00  0.00000000E+00  0.00000000E+00
  0.00000000E+00  0.00000000E+00  0.00000000E+00
  0.00000000E+00  0.00000000E+00  0.00000000E+00
  0.00000000E+00  0.00000000E+00  0.00000000E+00
  0.00000000E+00  0.00000000E+00  0.00000000E+00
  0.00000000E+00  0.00000000E+00  0.00000000E+00
  0.00000000E+00  0.00000000E+00  0.00000000E+00
  0.00000000E+00  0.00000000E+00  0.00000000E+00
  0.00000000E+00  0.00000000E+00  0.00000000E+00
  0.00000000E+00  0.00000000E+00  0.00000000E+00
  0.00000000E+00  0.00000000E+00  0.00000000E+00
  0.00000000E+00  0.00000000E+00  0.00000000E+00
  0.00000000E+00  0.00000000E+00  0.00000000E+00
  0.00000000E+00  0.00000000E+00  0.00000000E+00
  0.00000000E+00  0.00000000E+00  0.00000000E+00
  0.00000000E+00  0.00000000E+00  0.00000000E+00
  0.00000000E+00  0.00000000E+00  0.00000000E+00
  0.00000000E+00  0.00000000E+00  0.00000000E+00
  0.00000000E+00  0.00000000E+00  0.00000000E+00
  0.00000000E+00  0.00000000E+00  0.00000000E+00
  0.00000000E+00  0.00000000E+00  0.00000000E+00
  0.00000000E+00  0.00000000E+00  0.00000000E+00
  0.00000000E+00  0.00000000E+00  0.00000000E+00
  0.00000000E+00  0.00000000E+00  0.00000000E+00
  0.00000000E+00  0.00000000E+00  0.00000000E+00
  0.00000000E+00  0.00000000E+00  0.00000000E+00
  0.00000000E+00  0.00000000E+00  0.00000000E+00
  0.00000000E+00  0.00000000E+00  0.00000000E+00
  0.00000000E+00  0.00000000E+00  0.00000000E+00
  0.00000000E+00  0.00000000E+00  0.00000000E+00
  0.00000000E+00  0.00000000E+00  0.00000000E+00
  0.00000000E+00  0.00000000E+00  0.00000000E+00
  0.00000000E+00  0.00000000E+00  0.00000000E+00
  0.00000000E+00  0.00000000E+00  0.00000000E+00
  0.00000000E+00  0.00000000E+00  0.00000000E+00
  0.00000000E+00  0.00000000E+00  0.00000000E+00
  0.00000000E+00  0.00000000E+00  0.00000000E+00
  0.00000000E+00  0.00000000E+00  0.00000000E+00
  0.00000000E+00  0.00000000E+00  0.00000000E+00
  0.00000000E+00  0.00000000E+00  0.00000000E+00
  0.00000000E+00  0.00000000E+00  0.00000000E+00
  0.00000000E+00  0.00000000E+00  0.00000000E+00
  0.00000000E+00  0.00000000E+00  0.00000000E+00
  0.00000000E+00  0.00000000E+00  0.00000000E+00
  0.00000000E+00  0.00000000E+00  0.00000000E+00
  0.00000000E+00  0.00000000E+00  0.00000000E+00
  0.00000000E+00  0.00000000E+00  0.00000000E+00
  0.00000000E+00  0.00000000E+00  0.00000000E+00
  0.00000000E+00  0.00000000E+00  0.00000000E+00
  0.00000000E+00  0.00000000E+00  0.00000000E+00
  0.00000000E+00  0.00000000E+00  0.00000000E+00
  0.00000000E+00  0.00000000E+00  0.00000000E+00
