#generated using str2pos                
    1.000000000000000     
    12.9670669539025489    0.0223257548394534   -0.0024507217521008
     0.0223309839421527   12.9602179942414821    0.0081020236591411
    -0.0024541344987573    0.0081009693775474   12.9447403905873841
   Ta   W 
    70    58
Direct
  0.2512879036333250  0.2486607069868658  0.2484690089970052
  0.4977211548802994  0.2483117499703945  0.2499508841350872
  0.0039752902951076  0.2507627812323371  0.2467532952549158
  0.8742320026966162  0.1236821836174595  0.1275309604526627
  0.4966919694838390  0.4964698995926993  0.2493580677217961
  0.6286451640724577  0.3755859121982155  0.1261591199564571
  0.1241304377078367  0.6278080997311476  0.1269551959968863
  0.3710528151405551  0.6273813754998987  0.1279286829982028
  0.6269780520290492  0.6249606762511595  0.1275951633691861
  0.8757337108866911  0.6256735927003998  0.1274885435232431
  0.2518629899989339  0.0041397551893842  0.2481873481959207
  0.1236066611532041  0.8721537329079713  0.1264393189416557
  0.4993293488865626  0.0028704860179370  0.2504663391762714
  0.7455178689913965  0.0012837852155764  0.2523034718632017
  0.6264872932890705  0.8737070815809265  0.1264029769676686
  0.8760109175643389  0.8741561866704589  0.1267112190097043
  0.2525634477948348  0.2505976627735435  0.4993271670647043
  0.4974843870991619  0.2468101714036439  0.4993823418957312
  0.0029470865363859  0.2528815881317979  0.5007860478783640
  0.8756615923605495  0.1257044823522707  0.3753913560004682
  0.1258905111796716  0.3800411851103039  0.3735056743659588
  0.6284061865861982  0.3761554001701963  0.3760306112149334
  0.0003515010766026  0.5006663744250982  0.5053373143177156
  0.8722858273299344  0.3765480644263262  0.3735301682582431
  0.1253666115069508  0.6268357420703443  0.3738313298289143
  0.3729897739384543  0.6267202645720983  0.3764751136821651
  0.7498208251267974  0.7528825004831455  0.5034215347530691
  0.6237994485216611  0.6240062453972042  0.3754466582609883
  0.8745474113589923  0.6253980795195636  0.3723114502858277
  0.1242621457254431  0.8736311474092074  0.3759165642494396
  0.5019117142464248  0.0023773518500017  0.5003074198720943
  0.3728525992717315  0.8714433880826761  0.3767175447144077
  0.7457267787797867 -0.0023682925358134  0.5016301746284909
  0.8785934039738655  0.8745224931378545  0.3737249136800563
  0.2509721311709149  0.2508129308469466  0.7506722639456187
  0.1232517692483981  0.1201024732361563  0.6235650428002861
  0.4983779835620638  0.2468684151899197  0.7495964844501913
  0.7522164090921823  0.2480944106959435  0.7514174272206394
  0.0013483708611466  0.2524858288158840  0.7522271568744486
  0.8780665093727175  0.1232584684897283  0.6225450231034660
  0.2487533878670718  0.4973961304695128  0.7501785852516144
  0.7555423786972930  0.4998021064145839  0.7498774155419434
  0.6247403064978795  0.3772363090300677  0.6224811148383089
 -0.0002551832233483  0.4994144400252444  0.7494154607856724
  0.5002429851275745  0.7523377093474750  0.7527329456204539
  0.3744680303041577  0.6250512152190519  0.6227066115249248
  0.7516235450095778  0.7518278272171932  0.7495717067185274
  0.6211630175309014  0.6214745385677302  0.6230005981605559
 -0.0038562248441461  0.7483900940236128  0.7483447387718519
  0.2530343788034952  0.0020164963348023  0.7526727915573568
  0.1255282934679117  0.8753641150229055  0.6229754872056610
  0.5016938379672488  0.0003275306506830  0.7507855296473055
  0.3712596201900066  0.8712227896853160  0.6222935575810675
  0.7482757374549713 -0.0014420364299478  0.7503738982935499
  0.2503504109453187  0.2498622840625805 -0.0003982026201103
  0.4984338383785167  0.2475539569042281  0.0000665540665063
  0.7521656949429540  0.2487550465478103 -0.0015609944985873
  0.0021783682461775  0.2509708863012846 -0.0012803455113381
  0.2503954010299703  0.4967080458092034 -0.0014579599947852
  0.4951946655307918  0.4982023320191781  0.0008154822164771
  0.6250203471613794  0.3779422627800268  0.8744912214689515
  0.0002462536061180  0.4964277494896349 -0.0019219747229138
  0.1257840473039941  0.6292262264435918  0.8767281310105519
  0.4983990283908868  0.7525220538016013 -0.0023174525392373
  0.7501714236578926  0.7511393462781096 -0.0042694563322951
  0.6246193932064917  0.6209162119981390  0.8749747060618741
  0.2523527506364304  0.0030371766828543  0.0007322941506926
  0.1248929186806023  0.8724087932175325  0.8746273815942196
  0.4991382522391210  0.0009578901145692 -0.0008262738687503
  0.0010246755863661  0.0033409503227364 -0.0016490728220915
  0.1241327203465301  0.1243844812309543  0.1256742021314771
  0.3757315208460997  0.1250614805127001  0.1249058556976777
  0.7493053709470729  0.2485964113544082  0.2485431607490265
  0.6278988497757143  0.1252626147948094  0.1251081782305883
  0.2506470786421965  0.4971269597226001  0.2490762387585339
  0.1251037906465631  0.3779064705676973  0.1269217797944445
  0.3741524296312984  0.3760069710914403  0.1258737946186205
  0.7504166823829671  0.4991513506831752  0.2491045014343736
  0.0005024467812045  0.4981843125605278  0.2478261056929533
  0.8737942278048529  0.3771221196220761  0.1271110257896204
  0.2503196357015572  0.7519897062406765  0.2493852910827807
  0.4992309422967391  0.7521333673176109  0.2497231032357052
  0.7483651975238075  0.7516821474783560  0.2518318552294585
 -0.0000398307105922  0.7504739590284384  0.2507446595849808
  0.3741792876241078  0.8723809060154875  0.1271679236979389
  0.0027985193193386  0.0031072991204477  0.2494513560782630
  0.1240006469794440  0.1225982186156414  0.3763131068306102
  0.3740667249265268  0.1236479472136463  0.3756288888324143
  0.7488501910914612  0.2482474073782892  0.5012281319023500
  0.6269873446131735  0.1274829263021894  0.3747699099828546
  0.2486437173540034  0.4980211279725037  0.5022689538262046
  0.4967870105734553  0.4969962062549084  0.4989442092518304
  0.3739978900063249  0.3781660550109286  0.3758950192780365
  0.7523423835200395  0.5009660550550096  0.5021627146526580
  0.2477122057202550  0.7483822750279123  0.5009477454750818
  0.5016670309445164  0.7517449675881266  0.5006620824480182
 -0.0021775558155360  0.7481679583039987  0.5037961764219430
  0.2514005866107421  0.0028984182942080  0.4982325026630552
  0.6229537761781535  0.8715414243873431  0.3737017884208115
 -0.0001811255339837 -0.0003637682628395  0.4998033426261334
  0.3732674564555443  0.1229031631064161  0.6237857938069630
  0.6271057662989045  0.1266447819172285  0.6242483116625946
  0.1267671679059809  0.3757300091663114  0.6235717118538427
  0.4961686073726199  0.4984338947871542  0.7508701981676462
  0.3766919849672677  0.3780871896771220  0.6236183940510706
  0.8728450538238192  0.3739257693153518  0.6224645119359108
  0.2499505251433323  0.7483938376646925  0.7511201099714859
  0.1271512029288949  0.6278091430023689  0.6237262944422539
  0.8746356186873834  0.6252855733395398  0.6228403249657049
  0.6226543035395685  0.8730532876711921  0.6243436268602033
 -0.0021141281468918 -0.0007136062008755  0.7522624049635499
  0.8782470903837527  0.8762798794179981  0.6239950444214566
  0.1245797286169660  0.1234442235095524  0.8730701224453347
  0.3757518250112037  0.1248956107212674  0.8748317265025798
  0.6268366803483825  0.1246992928086920  0.8762809528483307
  0.8756246303157613  0.1226222369287126  0.8746768393466843
  0.1256263287865574  0.3757368006375590  0.8749322988566016
  0.3766506816885718  0.3754831744917255  0.8733419063199125
  0.7537986693238837  0.4992529512567305 -0.0014465132883592
  0.8743214513057799  0.3754064433558750  0.8760258876224148
  0.2528746925772888  0.7517396608033921 -0.0005481481631136
  0.3732174133681307  0.6257826528684985  0.8736040959368853
 -0.0022800589407216  0.7504523634459386 -0.0028452200444129
  0.8752364880215863  0.6253766537215117  0.8776534097261990
  0.3727054013184750  0.8735308683029496  0.8747551715428378
  0.7493739656931712  0.0008300016471735 -0.0027643459341486
  0.6262860793470967  0.8752614612974771  0.8765984635898575
  0.8768960903058992  0.8761100450869928  0.8762221621072237
 
  0.00000000E+00  0.00000000E+00  0.00000000E+00
  0.00000000E+00  0.00000000E+00  0.00000000E+00
  0.00000000E+00  0.00000000E+00  0.00000000E+00
  0.00000000E+00  0.00000000E+00  0.00000000E+00
  0.00000000E+00  0.00000000E+00  0.00000000E+00
  0.00000000E+00  0.00000000E+00  0.00000000E+00
  0.00000000E+00  0.00000000E+00  0.00000000E+00
  0.00000000E+00  0.00000000E+00  0.00000000E+00
  0.00000000E+00  0.00000000E+00  0.00000000E+00
  0.00000000E+00  0.00000000E+00  0.00000000E+00
  0.00000000E+00  0.00000000E+00  0.00000000E+00
  0.00000000E+00  0.00000000E+00  0.00000000E+00
  0.00000000E+00  0.00000000E+00  0.00000000E+00
  0.00000000E+00  0.00000000E+00  0.00000000E+00
  0.00000000E+00  0.00000000E+00  0.00000000E+00
  0.00000000E+00  0.00000000E+00  0.00000000E+00
  0.00000000E+00  0.00000000E+00  0.00000000E+00
  0.00000000E+00  0.00000000E+00  0.00000000E+00
  0.00000000E+00  0.00000000E+00  0.00000000E+00
  0.00000000E+00  0.00000000E+00  0.00000000E+00
  0.00000000E+00  0.00000000E+00  0.00000000E+00
  0.00000000E+00  0.00000000E+00  0.00000000E+00
  0.00000000E+00  0.00000000E+00  0.00000000E+00
  0.00000000E+00  0.00000000E+00  0.00000000E+00
  0.00000000E+00  0.00000000E+00  0.00000000E+00
  0.00000000E+00  0.00000000E+00  0.00000000E+00
  0.00000000E+00  0.00000000E+00  0.00000000E+00
  0.00000000E+00  0.00000000E+00  0.00000000E+00
  0.00000000E+00  0.00000000E+00  0.00000000E+00
  0.00000000E+00  0.00000000E+00  0.00000000E+00
  0.00000000E+00  0.00000000E+00  0.00000000E+00
  0.00000000E+00  0.00000000E+00  0.00000000E+00
  0.00000000E+00  0.00000000E+00  0.00000000E+00
  0.00000000E+00  0.00000000E+00  0.00000000E+00
  0.00000000E+00  0.00000000E+00  0.00000000E+00
  0.00000000E+00  0.00000000E+00  0.00000000E+00
  0.00000000E+00  0.00000000E+00  0.00000000E+00
  0.00000000E+00  0.00000000E+00  0.00000000E+00
  0.00000000E+00  0.00000000E+00  0.00000000E+00
  0.00000000E+00  0.00000000E+00  0.00000000E+00
  0.00000000E+00  0.00000000E+00  0.00000000E+00
  0.00000000E+00  0.00000000E+00  0.00000000E+00
  0.00000000E+00  0.00000000E+00  0.00000000E+00
  0.00000000E+00  0.00000000E+00  0.00000000E+00
  0.00000000E+00  0.00000000E+00  0.00000000E+00
  0.00000000E+00  0.00000000E+00  0.00000000E+00
  0.00000000E+00  0.00000000E+00  0.00000000E+00
  0.00000000E+00  0.00000000E+00  0.00000000E+00
  0.00000000E+00  0.00000000E+00  0.00000000E+00
  0.00000000E+00  0.00000000E+00  0.00000000E+00
  0.00000000E+00  0.00000000E+00  0.00000000E+00
  0.00000000E+00  0.00000000E+00  0.00000000E+00
  0.00000000E+00  0.00000000E+00  0.00000000E+00
  0.00000000E+00  0.00000000E+00  0.00000000E+00
  0.00000000E+00  0.00000000E+00  0.00000000E+00
  0.00000000E+00  0.00000000E+00  0.00000000E+00
  0.00000000E+00  0.00000000E+00  0.00000000E+00
  0.00000000E+00  0.00000000E+00  0.00000000E+00
  0.00000000E+00  0.00000000E+00  0.00000000E+00
  0.00000000E+00  0.00000000E+00  0.00000000E+00
  0.00000000E+00  0.00000000E+00  0.00000000E+00
  0.00000000E+00  0.00000000E+00  0.00000000E+00
  0.00000000E+00  0.00000000E+00  0.00000000E+00
  0.00000000E+00  0.00000000E+00  0.00000000E+00
  0.00000000E+00  0.00000000E+00  0.00000000E+00
  0.00000000E+00  0.00000000E+00  0.00000000E+00
  0.00000000E+00  0.00000000E+00  0.00000000E+00
  0.00000000E+00  0.00000000E+00  0.00000000E+00
  0.00000000E+00  0.00000000E+00  0.00000000E+00
  0.00000000E+00  0.00000000E+00  0.00000000E+00
  0.00000000E+00  0.00000000E+00  0.00000000E+00
  0.00000000E+00  0.00000000E+00  0.00000000E+00
  0.00000000E+00  0.00000000E+00  0.00000000E+00
  0.00000000E+00  0.00000000E+00  0.00000000E+00
  0.00000000E+00  0.00000000E+00  0.00000000E+00
  0.00000000E+00  0.00000000E+00  0.00000000E+00
  0.00000000E+00  0.00000000E+00  0.00000000E+00
  0.00000000E+00  0.00000000E+00  0.00000000E+00
  0.00000000E+00  0.00000000E+00  0.00000000E+00
  0.00000000E+00  0.00000000E+00  0.00000000E+00
  0.00000000E+00  0.00000000E+00  0.00000000E+00
  0.00000000E+00  0.00000000E+00  0.00000000E+00
  0.00000000E+00  0.00000000E+00  0.00000000E+00
  0.00000000E+00  0.00000000E+00  0.00000000E+00
  0.00000000E+00  0.00000000E+00  0.00000000E+00
  0.00000000E+00  0.00000000E+00  0.00000000E+00
  0.00000000E+00  0.00000000E+00  0.00000000E+00
  0.00000000E+00  0.00000000E+00  0.00000000E+00
  0.00000000E+00  0.00000000E+00  0.00000000E+00
  0.00000000E+00  0.00000000E+00  0.00000000E+00
  0.00000000E+00  0.00000000E+00  0.00000000E+00
  0.00000000E+00  0.00000000E+00  0.00000000E+00
  0.00000000E+00  0.00000000E+00  0.00000000E+00
  0.00000000E+00  0.00000000E+00  0.00000000E+00
  0.00000000E+00  0.00000000E+00  0.00000000E+00
  0.00000000E+00  0.00000000E+00  0.00000000E+00
  0.00000000E+00  0.00000000E+00  0.00000000E+00
  0.00000000E+00  0.00000000E+00  0.00000000E+00
  0.00000000E+00  0.00000000E+00  0.00000000E+00
  0.00000000E+00  0.00000000E+00  0.00000000E+00
  0.00000000E+00  0.00000000E+00  0.00000000E+00
  0.00000000E+00  0.00000000E+00  0.00000000E+00
  0.00000000E+00  0.00000000E+00  0.00000000E+00
  0.00000000E+00  0.00000000E+00  0.00000000E+00
  0.00000000E+00  0.00000000E+00  0.00000000E+00
  0.00000000E+00  0.00000000E+00  0.00000000E+00
  0.00000000E+00  0.00000000E+00  0.00000000E+00
  0.00000000E+00  0.00000000E+00  0.00000000E+00
  0.00000000E+00  0.00000000E+00  0.00000000E+00
  0.00000000E+00  0.00000000E+00  0.00000000E+00
  0.00000000E+00  0.00000000E+00  0.00000000E+00
  0.00000000E+00  0.00000000E+00  0.00000000E+00
  0.00000000E+00  0.00000000E+00  0.00000000E+00
  0.00000000E+00  0.00000000E+00  0.00000000E+00
  0.00000000E+00  0.00000000E+00  0.00000000E+00
  0.00000000E+00  0.00000000E+00  0.00000000E+00
  0.00000000E+00  0.00000000E+00  0.00000000E+00
  0.00000000E+00  0.00000000E+00  0.00000000E+00
  0.00000000E+00  0.00000000E+00  0.00000000E+00
  0.00000000E+00  0.00000000E+00  0.00000000E+00
  0.00000000E+00  0.00000000E+00  0.00000000E+00
  0.00000000E+00  0.00000000E+00  0.00000000E+00
  0.00000000E+00  0.00000000E+00  0.00000000E+00
  0.00000000E+00  0.00000000E+00  0.00000000E+00
  0.00000000E+00  0.00000000E+00  0.00000000E+00
  0.00000000E+00  0.00000000E+00  0.00000000E+00
  0.00000000E+00  0.00000000E+00  0.00000000E+00
  0.00000000E+00  0.00000000E+00  0.00000000E+00
