#generated using str2pos                
    1.000000000000000     
    13.0198026060107921    0.0027118497498492   -0.0063714050103608
     0.0027114098314903   13.0069049588162837   -0.0069553920046491
    -0.0063733757471469   -0.0069588474520920   13.0207449144169995
   Ta   W 
    83    45
Direct
  0.1273105056939096  0.1247503203939493  0.1251314670527883
  0.4999332265509450  0.2497825670053910  0.2492871477249436
  0.3725781523858160  0.1251164980517811  0.1245274808672137
  0.6268628510916501  0.1265446877073985  0.1263136565772844
  0.0021291891172509  0.2532022044014570  0.2507061391668953
  0.8747371882652575  0.1262091356572223  0.1276711713262249
  0.2467266105407581  0.5005366065185306  0.2509515318613283
  0.1290868230295556  0.3728975669976027  0.1214670670887164
  0.3729673655459076  0.3758909582265374  0.1251074806501651
  0.7525954587253076  0.5029803398123046  0.2488412359714314
  0.6273223276405872  0.3753476356306817  0.1260958233325998
  0.0017648352505774  0.5008782128399711  0.2478648689945328
  0.8715059087622795  0.3721198587344469  0.1242482110543613
  0.3746321453989400  0.6257310569873353  0.1261885744398113
  0.7531197655885933  0.7502944377271765  0.2512261937846519
  0.6229920616163355  0.6233491526068221  0.1275121114492849
 -0.0017010709968993  0.7468897151252161  0.2474095533706006
  0.2522725943152580 -0.0006782581456343  0.2530993026944787
  0.1273163770333918  0.8754642958038348  0.1250085795814615
  0.3736723188596768  0.8732061027551102  0.1255592668744177
  0.7509277625297884 -0.0025221189740823  0.2525902637451133
  0.6220433387015145  0.8746986053773734  0.1280802929921352
  0.8776714088452033  0.8775250796387690  0.1260677860563932
  0.2510978470085917  0.2529105687413932  0.5026599031659797
  0.1235304221657013  0.1258045694852156  0.3744749603691053
  0.3774613192079809  0.1266348167302741  0.3757235239966738
  0.7472207161878811  0.2506063612211101  0.5055305006985821
  0.6239642987862725  0.1244261343193640  0.3769612311112894
  0.8745230936623590  0.1267670506287027  0.3761086436422442
  0.2479121703052103  0.4977200634550587  0.5018599738562833
  0.3786736212023600  0.3761212061169374  0.3744523239923489
  0.6242055028954389  0.3769400591579618  0.3762207449609757
  0.0037119204305103  0.4981118049328484  0.5026960851595702
  0.8725123949870719  0.3741027922988769  0.3764766067016201
  0.2499728095125483  0.7504493546158736  0.5002574397486822
  0.1270846777693382  0.6279063003130814  0.3729685112995270
  0.3785969535443073  0.6261267452624908  0.3732055911726559
  0.7510281071653240  0.7545757816517250  0.5013181998667665
  0.6214464679311479  0.6246847544257922  0.3766822579010811
 -0.0012798387387936  0.7512214746611109  0.5013740876466320
  0.8730359312925069  0.6221020910740452  0.3786960250092800
  0.2531715090675097  0.0017430495733066  0.4997897389878297
  0.1256233163712563  0.8754147629955511  0.3714718321178101
  0.6214169739853382  0.8764024240477001  0.3767723294199493
 -0.0025681478336361 -0.0025974871483163  0.5011212978076427
  0.1233131954159784  0.1271656559941565  0.6244625546111540
  0.4998289973062459  0.2524946099299580  0.7483830884357757
  0.7489629428300218  0.2517430656504747  0.7493931477335321
 -0.0023728434551568  0.2507468447937423  0.7518979477012163
  0.8745392892482290  0.1253716997728973  0.6220811906346518
  0.2509857783976911  0.4974204480748468  0.7461991884509419
  0.5013909424033336  0.4957152110958856  0.7514642055830961
  0.7493178061549188  0.4969074358979494  0.7530089024639525
 -0.0014456366352064  0.4978153662915908  0.7494988800176088
  0.2473453560139925  0.7500428777291215  0.7481813616266100
  0.5036147118934988  0.7486872860637167  0.7505315350627454
  0.3798708621891906  0.6256235413648936  0.6216326005311671
  0.7509052066542090  0.7505043793158207  0.7509909852243344
  0.6248495748593688  0.6233006975590228  0.6206311462233156
 -0.0018234307284150  0.7501357056406099  0.7515236922011806
  0.8714424885015503  0.6225687206189918  0.6231433611998455
  0.2479494015944688  0.0015282127491673  0.7496256175909684
  0.1252706159541152  0.8769837676598786  0.6247164230664788
  0.3788208698989213  0.8765034581666103  0.6241772015834215
  0.7515415106479807 -0.0005611208494924  0.7487447642705704
 -0.0020387049821490 -0.0008785746397854  0.7527591330101822
  0.4999801623587460  0.2528831023106748 -0.0030500163645781
  0.3730010978671371  0.1243244464000067  0.8742893112218220
  0.6236394873294634  0.1240230921183655  0.8741749961316615
 -0.0013116049255373  0.2479677781668923 -0.0041412013638721
  0.1285064958692939  0.3741968619362385  0.8767058342852444
  0.5018521993538303  0.4977518430741358 -0.0050589904298522
 -0.0029232827359330  0.5012853917913310 -0.0001171106932979
  0.1281008602512156  0.6231246105635888  0.8774292895883211
  0.5027929371172197  0.7473232516202092 -0.0024381066657723
  0.3713436541345546  0.6251101007965743  0.8770385770253326
  0.7522766700485488  0.7473952939282582 -0.0022731544849190
 -0.0019954338104266  0.7484039868986834 -0.0013079681012203
  0.5000030131933043  0.0009627484773455  0.0001393126949602
  0.3744916414962365  0.8764973268764356  0.8755751022226641
  0.7529647143862467 -0.0010313066701188 -0.0027827406929389
  0.6222312693139613  0.8773474167911305  0.8731798210598980
 -0.0001803906038168  0.0002357884113948 -0.0060238741893456
  0.2498969238748130  0.2512287560941180  0.2523327054647441
  0.7496803378714942  0.2501330756219552  0.2520075757379989
  0.4997938725917783  0.4996801147611160  0.2491214699911849
  0.2498855646518685  0.7501693603799725  0.2502886231388064
  0.1286021519446302  0.6261017217038988  0.1229892164017408
  0.4995742828980388  0.7513485338408369  0.2505546980510959
  0.8738470973583682  0.6230725145032636  0.1241834072481855
  0.4987659436014124  0.0003544327525260  0.2520736505545084
 -0.0002009410518326 -0.0006190148357082  0.2505205573121864
  0.4997812071379962  0.2494987120799755  0.5050624013249583
  0.0007514779767162  0.2532675906335927  0.5021931666299206
  0.1256583232433122  0.3731304342927705  0.3745799316936552
  0.4995829760453503  0.4976383609237778  0.5027058167879535
  0.7500325172950411  0.4974833027199240  0.5031020043153752
  0.5007543304780223  0.7534323685085266  0.5002206674126866
  0.5000608632281737  0.0014977058894154  0.5020527735075240
  0.3783460453384860  0.8743590869145479  0.3740532226992632
  0.7486753628042855 -0.0006129080369862  0.5027740614732541
  0.8746683031920174  0.8775661196172182  0.3748529119540264
  0.2510863723037804  0.2505229718270477  0.7481650922996569
  0.3767152174999488  0.1257237668369410  0.6256009915387142
  0.6229240826688391  0.1238287822129108  0.6237722273437126
  0.1251422158332610  0.3715791457356188  0.6268179694631326
  0.3764233457540113  0.3739940518477644  0.6238811495221053
  0.6235577004483820  0.3755301904737719  0.6225416721203627
  0.8742869344869439  0.3745206318497002  0.6237874303668235
  0.1245743914501087  0.6247400569880545  0.6258311137037170
  0.5007540287302705  0.0025477117414544  0.7464703489189144
  0.6227977572197647  0.8773812984895301  0.6228661628108357
  0.8730830057902151  0.8762194611026156  0.6243962792020699
  0.2503579480906168  0.2492072144390354 -0.0031444348715771
  0.1282197876145988  0.1265169393954737  0.8749487631268483
  0.7505546946591515  0.2507454867009018 -0.0042046692566079
  0.8730521918125892  0.1264047608651711  0.8750555069957013
  0.2503895318611408  0.4995604922093068 -0.0003442541746027
  0.3716570445467482  0.3730184644778174  0.8751979406177625
  0.7506993758233573  0.5006629405150155 -0.0029130302582109
  0.6267219919194387  0.3735784312459224  0.8765084665370825
  0.8732556901337316  0.3745560190979905  0.8772579539849262
  0.2476458381365038  0.7501294807299345 -0.0003543037007946
  0.6258491296638496  0.6233462108647747  0.8750935555166180
  0.8747950280824617  0.6225670072084799  0.8747480248087031
  0.2474254082756651  0.0000567156468813 -0.0021121891982605
  0.1275502597481651  0.8740097856259192  0.8772126176583224
  0.8744727507618265  0.8743113516967270  0.8750877294687613
 
  0.00000000E+00  0.00000000E+00  0.00000000E+00
  0.00000000E+00  0.00000000E+00  0.00000000E+00
  0.00000000E+00  0.00000000E+00  0.00000000E+00
  0.00000000E+00  0.00000000E+00  0.00000000E+00
  0.00000000E+00  0.00000000E+00  0.00000000E+00
  0.00000000E+00  0.00000000E+00  0.00000000E+00
  0.00000000E+00  0.00000000E+00  0.00000000E+00
  0.00000000E+00  0.00000000E+00  0.00000000E+00
  0.00000000E+00  0.00000000E+00  0.00000000E+00
  0.00000000E+00  0.00000000E+00  0.00000000E+00
  0.00000000E+00  0.00000000E+00  0.00000000E+00
  0.00000000E+00  0.00000000E+00  0.00000000E+00
  0.00000000E+00  0.00000000E+00  0.00000000E+00
  0.00000000E+00  0.00000000E+00  0.00000000E+00
  0.00000000E+00  0.00000000E+00  0.00000000E+00
  0.00000000E+00  0.00000000E+00  0.00000000E+00
  0.00000000E+00  0.00000000E+00  0.00000000E+00
  0.00000000E+00  0.00000000E+00  0.00000000E+00
  0.00000000E+00  0.00000000E+00  0.00000000E+00
  0.00000000E+00  0.00000000E+00  0.00000000E+00
  0.00000000E+00  0.00000000E+00  0.00000000E+00
  0.00000000E+00  0.00000000E+00  0.00000000E+00
  0.00000000E+00  0.00000000E+00  0.00000000E+00
  0.00000000E+00  0.00000000E+00  0.00000000E+00
  0.00000000E+00  0.00000000E+00  0.00000000E+00
  0.00000000E+00  0.00000000E+00  0.00000000E+00
  0.00000000E+00  0.00000000E+00  0.00000000E+00
  0.00000000E+00  0.00000000E+00  0.00000000E+00
  0.00000000E+00  0.00000000E+00  0.00000000E+00
  0.00000000E+00  0.00000000E+00  0.00000000E+00
  0.00000000E+00  0.00000000E+00  0.00000000E+00
  0.00000000E+00  0.00000000E+00  0.00000000E+00
  0.00000000E+00  0.00000000E+00  0.00000000E+00
  0.00000000E+00  0.00000000E+00  0.00000000E+00
  0.00000000E+00  0.00000000E+00  0.00000000E+00
  0.00000000E+00  0.00000000E+00  0.00000000E+00
  0.00000000E+00  0.00000000E+00  0.00000000E+00
  0.00000000E+00  0.00000000E+00  0.00000000E+00
  0.00000000E+00  0.00000000E+00  0.00000000E+00
  0.00000000E+00  0.00000000E+00  0.00000000E+00
  0.00000000E+00  0.00000000E+00  0.00000000E+00
  0.00000000E+00  0.00000000E+00  0.00000000E+00
  0.00000000E+00  0.00000000E+00  0.00000000E+00
  0.00000000E+00  0.00000000E+00  0.00000000E+00
  0.00000000E+00  0.00000000E+00  0.00000000E+00
  0.00000000E+00  0.00000000E+00  0.00000000E+00
  0.00000000E+00  0.00000000E+00  0.00000000E+00
  0.00000000E+00  0.00000000E+00  0.00000000E+00
  0.00000000E+00  0.00000000E+00  0.00000000E+00
  0.00000000E+00  0.00000000E+00  0.00000000E+00
  0.00000000E+00  0.00000000E+00  0.00000000E+00
  0.00000000E+00  0.00000000E+00  0.00000000E+00
  0.00000000E+00  0.00000000E+00  0.00000000E+00
  0.00000000E+00  0.00000000E+00  0.00000000E+00
  0.00000000E+00  0.00000000E+00  0.00000000E+00
  0.00000000E+00  0.00000000E+00  0.00000000E+00
  0.00000000E+00  0.00000000E+00  0.00000000E+00
  0.00000000E+00  0.00000000E+00  0.00000000E+00
  0.00000000E+00  0.00000000E+00  0.00000000E+00
  0.00000000E+00  0.00000000E+00  0.00000000E+00
  0.00000000E+00  0.00000000E+00  0.00000000E+00
  0.00000000E+00  0.00000000E+00  0.00000000E+00
  0.00000000E+00  0.00000000E+00  0.00000000E+00
  0.00000000E+00  0.00000000E+00  0.00000000E+00
  0.00000000E+00  0.00000000E+00  0.00000000E+00
  0.00000000E+00  0.00000000E+00  0.00000000E+00
  0.00000000E+00  0.00000000E+00  0.00000000E+00
  0.00000000E+00  0.00000000E+00  0.00000000E+00
  0.00000000E+00  0.00000000E+00  0.00000000E+00
  0.00000000E+00  0.00000000E+00  0.00000000E+00
  0.00000000E+00  0.00000000E+00  0.00000000E+00
  0.00000000E+00  0.00000000E+00  0.00000000E+00
  0.00000000E+00  0.00000000E+00  0.00000000E+00
  0.00000000E+00  0.00000000E+00  0.00000000E+00
  0.00000000E+00  0.00000000E+00  0.00000000E+00
  0.00000000E+00  0.00000000E+00  0.00000000E+00
  0.00000000E+00  0.00000000E+00  0.00000000E+00
  0.00000000E+00  0.00000000E+00  0.00000000E+00
  0.00000000E+00  0.00000000E+00  0.00000000E+00
  0.00000000E+00  0.00000000E+00  0.00000000E+00
  0.00000000E+00  0.00000000E+00  0.00000000E+00
  0.00000000E+00  0.00000000E+00  0.00000000E+00
  0.00000000E+00  0.00000000E+00  0.00000000E+00
  0.00000000E+00  0.00000000E+00  0.00000000E+00
  0.00000000E+00  0.00000000E+00  0.00000000E+00
  0.00000000E+00  0.00000000E+00  0.00000000E+00
  0.00000000E+00  0.00000000E+00  0.00000000E+00
  0.00000000E+00  0.00000000E+00  0.00000000E+00
  0.00000000E+00  0.00000000E+00  0.00000000E+00
  0.00000000E+00  0.00000000E+00  0.00000000E+00
  0.00000000E+00  0.00000000E+00  0.00000000E+00
  0.00000000E+00  0.00000000E+00  0.00000000E+00
  0.00000000E+00  0.00000000E+00  0.00000000E+00
  0.00000000E+00  0.00000000E+00  0.00000000E+00
  0.00000000E+00  0.00000000E+00  0.00000000E+00
  0.00000000E+00  0.00000000E+00  0.00000000E+00
  0.00000000E+00  0.00000000E+00  0.00000000E+00
  0.00000000E+00  0.00000000E+00  0.00000000E+00
  0.00000000E+00  0.00000000E+00  0.00000000E+00
  0.00000000E+00  0.00000000E+00  0.00000000E+00
  0.00000000E+00  0.00000000E+00  0.00000000E+00
  0.00000000E+00  0.00000000E+00  0.00000000E+00
  0.00000000E+00  0.00000000E+00  0.00000000E+00
  0.00000000E+00  0.00000000E+00  0.00000000E+00
  0.00000000E+00  0.00000000E+00  0.00000000E+00
  0.00000000E+00  0.00000000E+00  0.00000000E+00
  0.00000000E+00  0.00000000E+00  0.00000000E+00
  0.00000000E+00  0.00000000E+00  0.00000000E+00
  0.00000000E+00  0.00000000E+00  0.00000000E+00
  0.00000000E+00  0.00000000E+00  0.00000000E+00
  0.00000000E+00  0.00000000E+00  0.00000000E+00
  0.00000000E+00  0.00000000E+00  0.00000000E+00
  0.00000000E+00  0.00000000E+00  0.00000000E+00
  0.00000000E+00  0.00000000E+00  0.00000000E+00
  0.00000000E+00  0.00000000E+00  0.00000000E+00
  0.00000000E+00  0.00000000E+00  0.00000000E+00
  0.00000000E+00  0.00000000E+00  0.00000000E+00
  0.00000000E+00  0.00000000E+00  0.00000000E+00
  0.00000000E+00  0.00000000E+00  0.00000000E+00
  0.00000000E+00  0.00000000E+00  0.00000000E+00
  0.00000000E+00  0.00000000E+00  0.00000000E+00
  0.00000000E+00  0.00000000E+00  0.00000000E+00
  0.00000000E+00  0.00000000E+00  0.00000000E+00
  0.00000000E+00  0.00000000E+00  0.00000000E+00
  0.00000000E+00  0.00000000E+00  0.00000000E+00
  0.00000000E+00  0.00000000E+00  0.00000000E+00
  0.00000000E+00  0.00000000E+00  0.00000000E+00
  0.00000000E+00  0.00000000E+00  0.00000000E+00
