#BCC aalvarado POSCAR generator         
    12.76000000000000     
     1.0010340521905254   -0.0000050721667719    0.0000087258168116
    -0.0000050870656219    1.0011529548840070    0.0000937255274310
     0.0000087210317873    0.0000937530698879    1.0010753739072100
   Ta   W 
    25   103
Direct
  0.4986175230743177  0.4974793297754558  0.4988116208373929
  0.3737178239831876  0.6257613619333512  0.6282544192479982
  0.7526526523786952  0.7491807858022027  0.7505669702069601
  0.4987327177451299  0.7518982283371506  0.4982295389630425
  0.7497747523983324  0.2503525771436516  0.2496708492916474
  0.2482813343119318  0.4996968420711332  0.4992422547384526
  0.7496467874473505  0.2515112003004951  0.7509352291672035
  0.2487684572691938  0.2509775305289172  0.7510692935316196
  0.6235806081006755  0.8733147743991408  0.8771547698331142
  0.8762829586748820  0.3763513780767551  0.3757248021714235
  0.6219942773274324  0.1241327148267819  0.1258142711988088
  0.3733936303598616  0.1256445187810075  0.3736838866041818
  0.8774142562761089  0.1254074219507271  0.6248206660127648
  0.3731793395046226  0.1259651211502365  0.6239584749596671
  0.1254084208351561  0.1251138419143551  0.1250883198544497
  0.1256668196414273  0.3750256647342575  0.1248564954023064
  0.0005718143654423  0.7497647260972233  0.7501208216035926
  0.0008419306833264  0.7497427566040770  0.0004195832195461
  0.7516110547247056 -0.0000425878755888  0.0007186437173634
  0.7503350236140616 -0.0007316180601781  0.4987082829482127
  0.5014327888535063 -0.0012832752178556  0.4998251528449915
  0.4990211219603630  0.0003723554264462  0.7504175394869744
  0.7503764001907186  0.2511671996944371 -0.0007627248935472
  0.6262555557761365  0.6231912683612901  0.6257676522639123
  0.6271409876868035  0.6247358927647143  0.3724468689976026
  0.6253678308867676  0.3751623282445546  0.3746924749214102
  0.3745014438673848  0.3733198773769939  0.3727463738345964
  0.6254359386202778  0.3751124905304801  0.6254888171771729
  0.3750116388568907  0.3745298231914284  0.6261909166354097
  0.3735887779485562  0.6256769360794034  0.3718184648820729
  0.7522983596003419  0.7513283251486980  0.4995287130532215
  0.7514751473952126  0.4993378360118165  0.5005747591241888
  0.7512053971889644  0.4992893131443149  0.7514002053103060
  0.4999146137091365  0.4983757175278875  0.7525656373950428
  0.4992420495316343  0.7503543838336016  0.7516707815681684
  0.7510709883824606  0.7502097022152989  0.2490776418412648
  0.7503683304024881  0.5007821867333866  0.2478386835978796
  0.4992689294830095  0.4997471706784229  0.2477178238194661
  0.4991625297253726  0.7500622728304194  0.2481231458257545
  0.4995659957254988  0.2513793992450954  0.2493232272340617
  0.7494544725719915  0.2497478017972801  0.5002106819133439
  0.5008150923710658  0.2509623613180235  0.4995990762776193
  0.2506346938206924  0.2506176073794312  0.2502335866480792
  0.2481305192581582  0.2513509535464981  0.5001975962561603
  0.2505023247325765  0.5015390003199136  0.2498854910115109
  0.5001555816330405  0.2507518138456625  0.7510239019424094
  0.2487827590723187  0.4996482902510144  0.7512645867158012
  0.2496733416217223  0.7500184389299301  0.2494234091008651
  0.2482423783037229  0.7504323767735022  0.4989935048880494
  0.2486519714495610  0.7506425889800832  0.7512458744228693
  0.8758412268191202  0.8759169379444206  0.8756977775750764
  0.8774656201847654  0.8756074760576166  0.6233617454326223
  0.8758628387963742  0.6234905559128001  0.6235721978947044
  0.8749738833396821  0.6224731873803233  0.8763472918053197
  0.6240260927946266  0.6237131712630171  0.8768076390745592
  0.6261728992425178  0.8737245447276957  0.6259972308663723
  0.8767487227285131  0.8740104966273350  0.3737622618519486
  0.8758696216036285  0.6252599737326024  0.3742921712989445
  0.6261891022994371  0.8737490146854087  0.3721476044607971
  0.8760110064620475  0.3756372296414288  0.6242480037010036
  0.8764179263882425  0.3766365403045557  0.8749030050808922
  0.6232874559964836  0.3768858384531600  0.8753539671090280
  0.3752700316999589  0.3760758607803276  0.8767279753298387
  0.3746454131658665  0.6246947359436260  0.8766136616008603
  0.3725415036770857  0.8753887738722537  0.3722391170458413
  0.3716858984839351  0.8743816350459258  0.6259074468109944
  0.3737438388423652  0.8739951983044767  0.8769561385543198
  0.8754534942525071  0.8740390177394027  0.1270656415584645
  0.8743842864699195  0.6249052382745776  0.1256868048336737
  0.6246884818777704  0.6247535389441534  0.1248468900539258
  0.6238688190627595  0.8736074464891244  0.1256990634089096
  0.8766163764073559  0.3772215079052088  0.1251090059393878
  0.6230019829478775  0.3767352940726317  0.1245012972442667
  0.3746156558823638  0.3758906037466927  0.1245388187913746
  0.3751134553760452  0.6252553738953495  0.1241326878731398
  0.3744309759544933  0.8739974129828095  0.1247579127224738
  0.8772931311309702  0.1240930216588307  0.1256532055886528
  0.8770673266312332  0.1250339643817719  0.3752328746498479
  0.6240299858981240  0.1255521039767136  0.3735772331355330
  0.3742082378377077  0.1247696315422700  0.1250847422508573
  0.6254731085203918  0.1270272326034929  0.6247849088728544
  0.1252143767105653  0.1243978263858635  0.3745827631550277
  0.1241605036927864  0.3745813711654288  0.3742948683522314
  0.1240699264295553  0.1243895519500742  0.6243645598984241
  0.1233887228569668  0.3751360417451615  0.6251792135085935
  0.1258777071804164  0.6244362023960295  0.1258287052486738
  0.1238237777107571  0.6263117406773312  0.3741172342918175
  0.1247075015004907  0.6252483131143164  0.6247024906718818
  0.8779523733964240  0.1252300172530736  0.8740169423990869
  0.6231877126472033  0.1253560445520192  0.8757509094130534
  0.3736751749242299  0.1253362199105995  0.8765781419299160
  0.1247577390537585  0.1245954671649575  0.8759447409186204
  0.1246693818499182  0.3756213873996099  0.8757652907954963
  0.1266211657175472  0.6237681742687637  0.8753879964974566
  0.1260104187678611  0.8756213174486400  0.1260480151940375
  0.1245641789146060  0.8747467054688431  0.3750198845593198
  0.1254586941001448  0.8755834038665412  0.6238183742438956
  0.1269536541835061  0.8762511873312743  0.8749281780799745
  0.0001863855287765 -0.0008598761364556 -0.0004174109053622
  0.0016303551479246 -0.0004902846406852  0.7503119104077267
  0.7505852199158476  0.7488655594182648  0.0013261498792995
  0.7504435297768851  0.0001678938297346  0.7498140595575284
  0.0007082061731345 -0.0007816526338524  0.4991585861174959
  0.0006407505202409  0.7500586531395121  0.4996849952222420
  0.0009329881477403  0.5009129889597858  0.5009389483848846
  0.0000624979671083  0.5001729995877439  0.7502259655041177
 -0.0004299301834101  0.5009787331568973 -0.0007012178683024
  0.7496118780918808  0.5002795192837898 -0.0000050003756498
  0.4998180991097082  0.5003163427613847  0.0001739283286080
  0.4986806731271962  0.7484082203302964  0.0015068408361540
  0.4979522349968561 -0.0002865513043985  0.0001825151116495
  0.0000403518333271 -0.0014424578350820  0.2507815065598170
  0.0003113526050929  0.7501903097762560  0.2501117154730682
  0.7510624510502346 -0.0013046385641081  0.2505195197376546
  0.0003409833242720  0.5021010532736371  0.2499165004628894
  0.4991871761292635 -0.0016372887130781  0.2494200643570589
 -0.0003568896021854  0.2492700806496307  0.2509242268140078
  0.0015159845574596  0.2500801296744746  0.5003417133293213
  0.0008634856080608  0.2508900979945283  0.7504395712832075
 -0.0006636206865294  0.2503008465316935 -0.0013513212643509
  0.4988517235556162  0.2515502725909322 -0.0003532745169527
  0.2513006039334834  0.2500764737124926 -0.0013496292931948
  0.2509863531074730  0.5011023312431924 -0.0002807059556209
  0.2502422101744349  0.7498573391978054  0.0006031023290558
  0.2492790303099660 -0.0020588001604771  0.2493778653297496
  0.2477645533530271 -0.0014591027326480  0.4996374019511146
  0.2489118838641286 -0.0003485389283299  0.7510626145543809
  0.2502279248098652 -0.0011531899047901 -0.0003148305319938
 
  0.00000000E+00  0.00000000E+00  0.00000000E+00
  0.00000000E+00  0.00000000E+00  0.00000000E+00
  0.00000000E+00  0.00000000E+00  0.00000000E+00
  0.00000000E+00  0.00000000E+00  0.00000000E+00
  0.00000000E+00  0.00000000E+00  0.00000000E+00
  0.00000000E+00  0.00000000E+00  0.00000000E+00
  0.00000000E+00  0.00000000E+00  0.00000000E+00
  0.00000000E+00  0.00000000E+00  0.00000000E+00
  0.00000000E+00  0.00000000E+00  0.00000000E+00
  0.00000000E+00  0.00000000E+00  0.00000000E+00
  0.00000000E+00  0.00000000E+00  0.00000000E+00
  0.00000000E+00  0.00000000E+00  0.00000000E+00
  0.00000000E+00  0.00000000E+00  0.00000000E+00
  0.00000000E+00  0.00000000E+00  0.00000000E+00
  0.00000000E+00  0.00000000E+00  0.00000000E+00
  0.00000000E+00  0.00000000E+00  0.00000000E+00
  0.00000000E+00  0.00000000E+00  0.00000000E+00
  0.00000000E+00  0.00000000E+00  0.00000000E+00
  0.00000000E+00  0.00000000E+00  0.00000000E+00
  0.00000000E+00  0.00000000E+00  0.00000000E+00
  0.00000000E+00  0.00000000E+00  0.00000000E+00
  0.00000000E+00  0.00000000E+00  0.00000000E+00
  0.00000000E+00  0.00000000E+00  0.00000000E+00
  0.00000000E+00  0.00000000E+00  0.00000000E+00
  0.00000000E+00  0.00000000E+00  0.00000000E+00
  0.00000000E+00  0.00000000E+00  0.00000000E+00
  0.00000000E+00  0.00000000E+00  0.00000000E+00
  0.00000000E+00  0.00000000E+00  0.00000000E+00
  0.00000000E+00  0.00000000E+00  0.00000000E+00
  0.00000000E+00  0.00000000E+00  0.00000000E+00
  0.00000000E+00  0.00000000E+00  0.00000000E+00
  0.00000000E+00  0.00000000E+00  0.00000000E+00
  0.00000000E+00  0.00000000E+00  0.00000000E+00
  0.00000000E+00  0.00000000E+00  0.00000000E+00
  0.00000000E+00  0.00000000E+00  0.00000000E+00
  0.00000000E+00  0.00000000E+00  0.00000000E+00
  0.00000000E+00  0.00000000E+00  0.00000000E+00
  0.00000000E+00  0.00000000E+00  0.00000000E+00
  0.00000000E+00  0.00000000E+00  0.00000000E+00
  0.00000000E+00  0.00000000E+00  0.00000000E+00
  0.00000000E+00  0.00000000E+00  0.00000000E+00
  0.00000000E+00  0.00000000E+00  0.00000000E+00
  0.00000000E+00  0.00000000E+00  0.00000000E+00
  0.00000000E+00  0.00000000E+00  0.00000000E+00
  0.00000000E+00  0.00000000E+00  0.00000000E+00
  0.00000000E+00  0.00000000E+00  0.00000000E+00
  0.00000000E+00  0.00000000E+00  0.00000000E+00
  0.00000000E+00  0.00000000E+00  0.00000000E+00
  0.00000000E+00  0.00000000E+00  0.00000000E+00
  0.00000000E+00  0.00000000E+00  0.00000000E+00
  0.00000000E+00  0.00000000E+00  0.00000000E+00
  0.00000000E+00  0.00000000E+00  0.00000000E+00
  0.00000000E+00  0.00000000E+00  0.00000000E+00
  0.00000000E+00  0.00000000E+00  0.00000000E+00
  0.00000000E+00  0.00000000E+00  0.00000000E+00
  0.00000000E+00  0.00000000E+00  0.00000000E+00
  0.00000000E+00  0.00000000E+00  0.00000000E+00
  0.00000000E+00  0.00000000E+00  0.00000000E+00
  0.00000000E+00  0.00000000E+00  0.00000000E+00
  0.00000000E+00  0.00000000E+00  0.00000000E+00
  0.00000000E+00  0.00000000E+00  0.00000000E+00
  0.00000000E+00  0.00000000E+00  0.00000000E+00
  0.00000000E+00  0.00000000E+00  0.00000000E+00
  0.00000000E+00  0.00000000E+00  0.00000000E+00
  0.00000000E+00  0.00000000E+00  0.00000000E+00
  0.00000000E+00  0.00000000E+00  0.00000000E+00
  0.00000000E+00  0.00000000E+00  0.00000000E+00
  0.00000000E+00  0.00000000E+00  0.00000000E+00
  0.00000000E+00  0.00000000E+00  0.00000000E+00
  0.00000000E+00  0.00000000E+00  0.00000000E+00
  0.00000000E+00  0.00000000E+00  0.00000000E+00
  0.00000000E+00  0.00000000E+00  0.00000000E+00
  0.00000000E+00  0.00000000E+00  0.00000000E+00
  0.00000000E+00  0.00000000E+00  0.00000000E+00
  0.00000000E+00  0.00000000E+00  0.00000000E+00
  0.00000000E+00  0.00000000E+00  0.00000000E+00
  0.00000000E+00  0.00000000E+00  0.00000000E+00
  0.00000000E+00  0.00000000E+00  0.00000000E+00
  0.00000000E+00  0.00000000E+00  0.00000000E+00
  0.00000000E+00  0.00000000E+00  0.00000000E+00
  0.00000000E+00  0.00000000E+00  0.00000000E+00
  0.00000000E+00  0.00000000E+00  0.00000000E+00
  0.00000000E+00  0.00000000E+00  0.00000000E+00
  0.00000000E+00  0.00000000E+00  0.00000000E+00
  0.00000000E+00  0.00000000E+00  0.00000000E+00
  0.00000000E+00  0.00000000E+00  0.00000000E+00
  0.00000000E+00  0.00000000E+00  0.00000000E+00
  0.00000000E+00  0.00000000E+00  0.00000000E+00
  0.00000000E+00  0.00000000E+00  0.00000000E+00
  0.00000000E+00  0.00000000E+00  0.00000000E+00
  0.00000000E+00  0.00000000E+00  0.00000000E+00
  0.00000000E+00  0.00000000E+00  0.00000000E+00
  0.00000000E+00  0.00000000E+00  0.00000000E+00
  0.00000000E+00  0.00000000E+00  0.00000000E+00
  0.00000000E+00  0.00000000E+00  0.00000000E+00
  0.00000000E+00  0.00000000E+00  0.00000000E+00
  0.00000000E+00  0.00000000E+00  0.00000000E+00
  0.00000000E+00  0.00000000E+00  0.00000000E+00
  0.00000000E+00  0.00000000E+00  0.00000000E+00
  0.00000000E+00  0.00000000E+00  0.00000000E+00
  0.00000000E+00  0.00000000E+00  0.00000000E+00
  0.00000000E+00  0.00000000E+00  0.00000000E+00
  0.00000000E+00  0.00000000E+00  0.00000000E+00
  0.00000000E+00  0.00000000E+00  0.00000000E+00
  0.00000000E+00  0.00000000E+00  0.00000000E+00
  0.00000000E+00  0.00000000E+00  0.00000000E+00
  0.00000000E+00  0.00000000E+00  0.00000000E+00
  0.00000000E+00  0.00000000E+00  0.00000000E+00
  0.00000000E+00  0.00000000E+00  0.00000000E+00
  0.00000000E+00  0.00000000E+00  0.00000000E+00
  0.00000000E+00  0.00000000E+00  0.00000000E+00
  0.00000000E+00  0.00000000E+00  0.00000000E+00
  0.00000000E+00  0.00000000E+00  0.00000000E+00
  0.00000000E+00  0.00000000E+00  0.00000000E+00
  0.00000000E+00  0.00000000E+00  0.00000000E+00
  0.00000000E+00  0.00000000E+00  0.00000000E+00
  0.00000000E+00  0.00000000E+00  0.00000000E+00
  0.00000000E+00  0.00000000E+00  0.00000000E+00
  0.00000000E+00  0.00000000E+00  0.00000000E+00
  0.00000000E+00  0.00000000E+00  0.00000000E+00
  0.00000000E+00  0.00000000E+00  0.00000000E+00
  0.00000000E+00  0.00000000E+00  0.00000000E+00
  0.00000000E+00  0.00000000E+00  0.00000000E+00
  0.00000000E+00  0.00000000E+00  0.00000000E+00
  0.00000000E+00  0.00000000E+00  0.00000000E+00
  0.00000000E+00  0.00000000E+00  0.00000000E+00
  0.00000000E+00  0.00000000E+00  0.00000000E+00
  0.00000000E+00  0.00000000E+00  0.00000000E+00
