#generated using str2pos                
    1.000000000000000     
    12.9003209352039487    0.0065722813643844    0.0014206434106881
     0.0065707388517329   12.9042008163363153   -0.0039493479338053
     0.0014202718415799   -0.0039489226563168   12.9086015240344611
   Ta   W 
    58    70
Direct
  0.1264032283384420  0.1240909036831631  0.1243983277169447
  0.3734574650266866  0.1234632550005109  0.1258875633739965
  0.0001252689643808  0.2471592703509078  0.2522175545096061
  0.2513319805062327  0.5006669985048929  0.2513693009252190
  0.1255188439490549  0.3726447344636765  0.1247196733860951
  0.4987908272642465  0.4974474091934074  0.2494351967448174
  0.7486996818858428  0.5006983519325590  0.2485913813884633
  0.8755770538096261  0.3741214340122820  0.1258568176374414
  0.2481692957536160  0.7456694923453737  0.2483825186270709
  0.4997426454124017  0.7472809893130676  0.2504546709977851
  0.7521488806775830  0.7501612441567660  0.2493284997281652
 -0.0010733747602151  0.7500365392108161  0.2487557983253424
  0.3752749167765277  0.8773174883936276  0.1231924753691662
  0.7508110775251469  0.0003659890374056  0.2499921166506230
  0.6220945890727951  0.8749471864247366  0.1221475748940063
  0.2515467482821663  0.2496725292479736  0.4994998392027777
  0.4987459015732821  0.2502282671488646  0.4981862771783767
  0.7476178818180964  0.2469531235518979  0.4979333140479743
  0.4963338646191688  0.4989128641642071  0.4985104731187006
  0.8762374939844089  0.3755931127723751  0.3759319997351365
  0.4990649097663084  0.7482668402427054  0.4981772530619819
  0.6274710551796694  0.6245021006610847  0.3776307747540836
 -0.0010973873282552  0.7491040368785798  0.4955046888029009
  0.2497721108776388  0.0057795418261072  0.5000608308990686
  0.1257691434802468  0.8773384218691602  0.3749340905132605
  0.3732542380786930  0.8775056303426236  0.3741590067008126
  0.7492573252595979  0.0014486421627090  0.4961127684270651
  0.2511541342056212  0.2496323894977392  0.7452758914080274
  0.5012532068463943  0.2483467824593147  0.7485724258284030
 -0.0003358737721809  0.2493248506540847  0.7510021856987406
  0.8762321658784057  0.1240621405872156  0.6256578774574902
  0.1234387937618633  0.3792270617708594  0.6245138546858219
  0.6276370337802600  0.3777209873462852  0.6267158420662058
  0.8745760540878176  0.3765050127050651  0.6245416678247305
  0.1254533782603445  0.6245824734538605  0.6257495257899426
  0.6269180292095192  0.6247760913244503  0.6277878239805764
  0.8748036158408525  0.6245265613181752  0.6264700367685094
  0.1247131315371240  0.8741671571637719  0.6268309489175644
  0.5023525012865885  0.0032147836767405  0.7496606934878356
  0.3743913647166344  0.8738457734636412  0.6257466512792365
  0.6263869694178615  0.8732678909413569  0.6259669143513096
  0.8752927998616153  0.8752160556657422  0.6270635417248014
  0.1253234860823923  0.1225696640434153  0.8779658383535131
  0.5042434703321428  0.2519081259629048  0.0016771514733108
  0.3729753917174466  0.1232011634032659  0.8786309545400061
  0.7484938839368119  0.2486648227504022 -0.0006746438139556
  0.1264704504739365  0.3756506129575161  0.8767721338703346
  0.5011341109537090  0.4989086913124536  0.0036494621553544
  0.3728927304781846  0.3775738374869209  0.8752629848165933
 -0.0003265613261345  0.5029084685133979  0.0008504413853980
  0.3748791884782539  0.6260697439978214  0.8736913275738896
  0.6258308271657307  0.6265137803514251  0.8738646001221897
  0.0007847797587366  0.7483462085329680  0.0040255310737526
  0.8723801864260752  0.6259492215679578  0.8730895278657419
  0.1254369154172415  0.8759138938582436  0.8742060421044646
  0.3736464891193633  0.8734379844180867  0.8759245582523660
  0.7507498241159688  0.0030976932614641  0.0005236422518467
  0.8756525646296822  0.8748306554326853  0.8730180897935228
  0.2509397752284402  0.2516857367805970  0.2535657701455648
  0.5005558110862010  0.2501430832402272  0.2508194360754235
  0.7483825775013951  0.2483914938180140  0.2491837141026207
  0.6229274651823148  0.1246112314129501  0.1270038993368791
  0.8771966532476739  0.1250114784115214  0.1250280239698984
  0.3732020013437539  0.3719127869164052  0.1252264892930987
  0.6263546135012749  0.3737674410571920  0.1256023375456854
  0.0012063668860533  0.5015804841437376  0.2504769575535242
  0.1255077320622765  0.6233643370174807  0.1245816657020225
  0.3739207089613417  0.6257987031111667  0.1217862137079121
  0.6255732502250988  0.6261159475399055  0.1217199822003740
  0.8742243960973685  0.6237465191208480  0.1239822551327573
  0.2486999207193465  0.0005129240739762  0.2513946921750624
  0.1258846520289769  0.8772287915590715  0.1240013451786097
  0.5019342134929654  0.0022776341891372  0.2511361848136395
 -0.0023329531384158  0.0002104714417447  0.2497579945245015
  0.8750274224313545  0.8759952905011645  0.1233121775630771
  0.1245113616266975  0.1246032345967712  0.3734079994106265
  0.3762326895292172  0.1245098229272624  0.3712233059514251
  0.6229560668673289  0.1250043901531735  0.3725147517747443
  0.0020935419571653  0.2493213861531247  0.4982754898473780
  0.8763236381161730  0.1254074059973949  0.3746662853272988
  0.2509780952229522  0.4987645331138686  0.4976120122420936
  0.1238652488011214  0.3752038985272806  0.3758642738202375
  0.3733299232782115  0.3732371325684992  0.3739280245015117
  0.7502636207064574  0.4993904281361432  0.4978381497937541
  0.6259040663387408  0.3731212527692468  0.3743555463011103
  0.0015642576584488  0.5014550195011628  0.4978483009423197
  0.2505194579290174  0.7477717563298818  0.4988409402598411
  0.1241540768152227  0.6231030010824629  0.3770251290747454
  0.3728300725353115  0.6246070269060738  0.3769065219188448
  0.7508928883470090  0.7521021581253103  0.4969467759952173
  0.8751937739670772  0.6227969306784763  0.3768985144618129
  0.5008405171388823  0.0025738494357052  0.4997764116685596
  0.6234006930081070  0.8760989936112800  0.3749876937474337
 -0.0000717698113619  0.0012998068886917  0.4976665773746812
  0.8765448166695144  0.8759606436451164  0.3752297335123750
  0.1226444288449007  0.1239144847300153  0.6249240831098894
  0.3753699712928898  0.1236526915010652  0.6242017729092618
  0.7501026499468847  0.2496519430367627  0.7531888912236441
  0.6267131236470633  0.1245333560969527  0.6244943195017854
  0.2508202429035383  0.5011216755948419  0.7488924125865294
  0.4993848154256159  0.4984623284190208  0.7497055634863431
  0.3748128466504678  0.3782265114442740  0.6256197703453088
  0.7502105842657213  0.4984742981276146  0.7524808785693545
 -0.0002158329592600  0.4990058686884710  0.7528983104572908
  0.2499871575351772  0.7480866126005870  0.7503765135468888
  0.4997010399109997  0.7511245864581869  0.7496843580181234
  0.3726406786962038  0.6256253975594818  0.6275152177384270
  0.7494735026070608  0.7513105766393741  0.7511253631519967
  0.0011964404103278  0.7493369097781424  0.7513375702552362
  0.2512688433328524  0.0016680868512623  0.7474620435469288
  0.7476971847330421  0.0022367283598932  0.7517031294366998
 -0.0003626360892426  0.0025413928625842  0.7504453567343258
  0.2517132431673446  0.2507742702833957  0.0016690025033510
  0.6264018939295118  0.1246001353057852  0.8746266282408300
 -0.0037112338699719  0.2492776694644476  0.0000849373779824
  0.8761381379877835  0.1240208558582192  0.8742010407168846
  0.2499181994050517  0.5020315792643221  0.0030727412957449
  0.7495004160754349  0.4982742115659480  0.0014671386564489
  0.6267140739014405  0.3773809553092723  0.8731800475809701
  0.8750655648785135  0.3761464645877558  0.8745190353864275
  0.2478222293339197  0.7482505375490968  0.0019425576603581
  0.1265185290237665  0.6256882019126860  0.8732051882624211
  0.5002435615885376  0.7483513235122271  0.0010441261072847
  0.7503030182726258  0.7513755979662869  0.0017186032596630
  0.2484480078521679 -0.0018116593397066  0.0015174201105922
  0.5032508465854190  0.0008071521516330 -0.0014565004753317
  0.6252868289126905  0.8733624779526017  0.8747608996545971
 -0.0024707102288397 -0.0015272243452779  0.0025956922926745
 
  0.00000000E+00  0.00000000E+00  0.00000000E+00
  0.00000000E+00  0.00000000E+00  0.00000000E+00
  0.00000000E+00  0.00000000E+00  0.00000000E+00
  0.00000000E+00  0.00000000E+00  0.00000000E+00
  0.00000000E+00  0.00000000E+00  0.00000000E+00
  0.00000000E+00  0.00000000E+00  0.00000000E+00
  0.00000000E+00  0.00000000E+00  0.00000000E+00
  0.00000000E+00  0.00000000E+00  0.00000000E+00
  0.00000000E+00  0.00000000E+00  0.00000000E+00
  0.00000000E+00  0.00000000E+00  0.00000000E+00
  0.00000000E+00  0.00000000E+00  0.00000000E+00
  0.00000000E+00  0.00000000E+00  0.00000000E+00
  0.00000000E+00  0.00000000E+00  0.00000000E+00
  0.00000000E+00  0.00000000E+00  0.00000000E+00
  0.00000000E+00  0.00000000E+00  0.00000000E+00
  0.00000000E+00  0.00000000E+00  0.00000000E+00
  0.00000000E+00  0.00000000E+00  0.00000000E+00
  0.00000000E+00  0.00000000E+00  0.00000000E+00
  0.00000000E+00  0.00000000E+00  0.00000000E+00
  0.00000000E+00  0.00000000E+00  0.00000000E+00
  0.00000000E+00  0.00000000E+00  0.00000000E+00
  0.00000000E+00  0.00000000E+00  0.00000000E+00
  0.00000000E+00  0.00000000E+00  0.00000000E+00
  0.00000000E+00  0.00000000E+00  0.00000000E+00
  0.00000000E+00  0.00000000E+00  0.00000000E+00
  0.00000000E+00  0.00000000E+00  0.00000000E+00
  0.00000000E+00  0.00000000E+00  0.00000000E+00
  0.00000000E+00  0.00000000E+00  0.00000000E+00
  0.00000000E+00  0.00000000E+00  0.00000000E+00
  0.00000000E+00  0.00000000E+00  0.00000000E+00
  0.00000000E+00  0.00000000E+00  0.00000000E+00
  0.00000000E+00  0.00000000E+00  0.00000000E+00
  0.00000000E+00  0.00000000E+00  0.00000000E+00
  0.00000000E+00  0.00000000E+00  0.00000000E+00
  0.00000000E+00  0.00000000E+00  0.00000000E+00
  0.00000000E+00  0.00000000E+00  0.00000000E+00
  0.00000000E+00  0.00000000E+00  0.00000000E+00
  0.00000000E+00  0.00000000E+00  0.00000000E+00
  0.00000000E+00  0.00000000E+00  0.00000000E+00
  0.00000000E+00  0.00000000E+00  0.00000000E+00
  0.00000000E+00  0.00000000E+00  0.00000000E+00
  0.00000000E+00  0.00000000E+00  0.00000000E+00
  0.00000000E+00  0.00000000E+00  0.00000000E+00
  0.00000000E+00  0.00000000E+00  0.00000000E+00
  0.00000000E+00  0.00000000E+00  0.00000000E+00
  0.00000000E+00  0.00000000E+00  0.00000000E+00
  0.00000000E+00  0.00000000E+00  0.00000000E+00
  0.00000000E+00  0.00000000E+00  0.00000000E+00
  0.00000000E+00  0.00000000E+00  0.00000000E+00
  0.00000000E+00  0.00000000E+00  0.00000000E+00
  0.00000000E+00  0.00000000E+00  0.00000000E+00
  0.00000000E+00  0.00000000E+00  0.00000000E+00
  0.00000000E+00  0.00000000E+00  0.00000000E+00
  0.00000000E+00  0.00000000E+00  0.00000000E+00
  0.00000000E+00  0.00000000E+00  0.00000000E+00
  0.00000000E+00  0.00000000E+00  0.00000000E+00
  0.00000000E+00  0.00000000E+00  0.00000000E+00
  0.00000000E+00  0.00000000E+00  0.00000000E+00
  0.00000000E+00  0.00000000E+00  0.00000000E+00
  0.00000000E+00  0.00000000E+00  0.00000000E+00
  0.00000000E+00  0.00000000E+00  0.00000000E+00
  0.00000000E+00  0.00000000E+00  0.00000000E+00
  0.00000000E+00  0.00000000E+00  0.00000000E+00
  0.00000000E+00  0.00000000E+00  0.00000000E+00
  0.00000000E+00  0.00000000E+00  0.00000000E+00
  0.00000000E+00  0.00000000E+00  0.00000000E+00
  0.00000000E+00  0.00000000E+00  0.00000000E+00
  0.00000000E+00  0.00000000E+00  0.00000000E+00
  0.00000000E+00  0.00000000E+00  0.00000000E+00
  0.00000000E+00  0.00000000E+00  0.00000000E+00
  0.00000000E+00  0.00000000E+00  0.00000000E+00
  0.00000000E+00  0.00000000E+00  0.00000000E+00
  0.00000000E+00  0.00000000E+00  0.00000000E+00
  0.00000000E+00  0.00000000E+00  0.00000000E+00
  0.00000000E+00  0.00000000E+00  0.00000000E+00
  0.00000000E+00  0.00000000E+00  0.00000000E+00
  0.00000000E+00  0.00000000E+00  0.00000000E+00
  0.00000000E+00  0.00000000E+00  0.00000000E+00
  0.00000000E+00  0.00000000E+00  0.00000000E+00
  0.00000000E+00  0.00000000E+00  0.00000000E+00
  0.00000000E+00  0.00000000E+00  0.00000000E+00
  0.00000000E+00  0.00000000E+00  0.00000000E+00
  0.00000000E+00  0.00000000E+00  0.00000000E+00
  0.00000000E+00  0.00000000E+00  0.00000000E+00
  0.00000000E+00  0.00000000E+00  0.00000000E+00
  0.00000000E+00  0.00000000E+00  0.00000000E+00
  0.00000000E+00  0.00000000E+00  0.00000000E+00
  0.00000000E+00  0.00000000E+00  0.00000000E+00
  0.00000000E+00  0.00000000E+00  0.00000000E+00
  0.00000000E+00  0.00000000E+00  0.00000000E+00
  0.00000000E+00  0.00000000E+00  0.00000000E+00
  0.00000000E+00  0.00000000E+00  0.00000000E+00
  0.00000000E+00  0.00000000E+00  0.00000000E+00
  0.00000000E+00  0.00000000E+00  0.00000000E+00
  0.00000000E+00  0.00000000E+00  0.00000000E+00
  0.00000000E+00  0.00000000E+00  0.00000000E+00
  0.00000000E+00  0.00000000E+00  0.00000000E+00
  0.00000000E+00  0.00000000E+00  0.00000000E+00
  0.00000000E+00  0.00000000E+00  0.00000000E+00
  0.00000000E+00  0.00000000E+00  0.00000000E+00
  0.00000000E+00  0.00000000E+00  0.00000000E+00
  0.00000000E+00  0.00000000E+00  0.00000000E+00
  0.00000000E+00  0.00000000E+00  0.00000000E+00
  0.00000000E+00  0.00000000E+00  0.00000000E+00
  0.00000000E+00  0.00000000E+00  0.00000000E+00
  0.00000000E+00  0.00000000E+00  0.00000000E+00
  0.00000000E+00  0.00000000E+00  0.00000000E+00
  0.00000000E+00  0.00000000E+00  0.00000000E+00
  0.00000000E+00  0.00000000E+00  0.00000000E+00
  0.00000000E+00  0.00000000E+00  0.00000000E+00
  0.00000000E+00  0.00000000E+00  0.00000000E+00
  0.00000000E+00  0.00000000E+00  0.00000000E+00
  0.00000000E+00  0.00000000E+00  0.00000000E+00
  0.00000000E+00  0.00000000E+00  0.00000000E+00
  0.00000000E+00  0.00000000E+00  0.00000000E+00
  0.00000000E+00  0.00000000E+00  0.00000000E+00
  0.00000000E+00  0.00000000E+00  0.00000000E+00
  0.00000000E+00  0.00000000E+00  0.00000000E+00
  0.00000000E+00  0.00000000E+00  0.00000000E+00
  0.00000000E+00  0.00000000E+00  0.00000000E+00
  0.00000000E+00  0.00000000E+00  0.00000000E+00
  0.00000000E+00  0.00000000E+00  0.00000000E+00
  0.00000000E+00  0.00000000E+00  0.00000000E+00
  0.00000000E+00  0.00000000E+00  0.00000000E+00
  0.00000000E+00  0.00000000E+00  0.00000000E+00
  0.00000000E+00  0.00000000E+00  0.00000000E+00
  0.00000000E+00  0.00000000E+00  0.00000000E+00
  0.00000000E+00  0.00000000E+00  0.00000000E+00
