#generated using str2pos                
    1.000000000000000     
    12.8837524334765323   -0.0082766957362982   -0.0016631566946861
    -0.0082936113888630   12.8671118097614290   -0.0083791318402672
    -0.0016700706754705   -0.0083775905780578   12.8699811742167665
   Ta   W 
    51    77
Direct
  0.2513588314334591  0.2492531286877838  0.2498283138424460
  0.8748746120410481  0.1244945356418780  0.1263230796904792
  0.5008827637860078  0.4990155288549878  0.2497474423582207
  0.8741216578848322  0.3751329715390221  0.1274088584721936
  0.2514967800414867  0.7515483874891881  0.2483578013877379
  0.5006799961714677  0.7512224525237922  0.2489134587731188
  0.8739596004253767  0.6261507220436174  0.1267685801639007
  0.2515551239671503  0.0019968189583836  0.2506668755755764
  0.1205155119515726  0.8757024355410622  0.1256227070740049
  0.5002639067888688  0.0006761805317339  0.2493614249184354
  0.8742152266553397  0.8754748883394203  0.1248231944834460
  0.2525987034539494  0.2492982707119279  0.4986585146856939
  0.5000500727536201  0.2504558688509516  0.4998394766343257
  0.8740519813933458  0.1254277134214495  0.3748941051940102
  0.1223951386293675  0.3770620235686506  0.3749344264630161
  0.5012796849792408  0.4979329603439393  0.5004762249341473
  0.8749290574992041  0.3748031808053121  0.3749418970070190
  0.1243931295281990  0.6241837355253207  0.3755788905834883
  0.3731088516904519  0.6248641368197301  0.3772156525933398
  0.8749763756032650  0.6252166666971661  0.3743571453329404
  0.2509639985772305  0.0008386149251061  0.4979223748721409
  0.5001603869370904  0.0029600476590967  0.4972453742022104
  0.8747665595949714  0.8757730873587745  0.3748991905210167
  0.1215594194746641  0.1257457822703017  0.6264941656785495
  0.7485317954412127  0.2507278728905639  0.7511131855289765
  0.8755617693720009  0.1242574654544265  0.6237217651439225
  0.2508695102878790  0.5005918641853118  0.7495206125811934
  0.7503225460522531  0.4968612202206864  0.7494324905979176
 -0.0015125746248985  0.4994304701505084  0.7516682841746519
  0.2503085238389746  0.7491448065882989  0.7521678959510565
  0.1245944504870884  0.6242791563968881  0.6200499708802001
  0.4994101539664805  0.7487854283838841  0.7515833739377131
  0.0024094738282482  0.7494894254267840  0.7516205386161825
  0.8738969951140375  0.6261237478450002  0.6213828826520895
  0.2507242878037090 -0.0025851411599196  0.7496268599056364
  0.3779504741746710  0.8736563026046906  0.6239013769450557
  0.6268038118169468  0.8752333144808727  0.6248856022096745
  0.8731307407179436  0.8762096617530499  0.6244434136664478
  0.1235320172481541  0.1265176826963982  0.8749791020747211
  0.3773080421607354  0.1271464573256903  0.8753212378479919
  0.7478453754192330  0.2494620060708919 -0.0015608775738031
  0.2502023976779963  0.5018024592711844  0.0014769990488714
  0.1258408661831175  0.3696655445488802  0.8751261828077719
  0.4997562608852641  0.4995294393070137  0.0026714182059562
  0.3758368852099190  0.3707155353236075  0.8744719868683286
  0.0009999864664444  0.5002231700649784 -0.0008918552527707
  0.2515047561476476  0.7492233615167995 -0.0005881237280692
  0.4992351882553064  0.7510515932444434  0.0012505027445150
  0.6272685666775866  0.6247483812411851  0.8754677819495377
  0.2514999284507641 -0.0015018032610549  0.0009308956518907
  0.8734758156305621  0.8763331891719440  0.8761524353057206
  0.1223629582045835  0.1256749057932954  0.1237844454078640
  0.4993962117492911  0.2499312759312504  0.2499451899697984
  0.3773915740773427  0.1270172027839394  0.1226226025875877
  0.7461126432138275  0.2501829716788255  0.2497247090035037
  0.6251904388833253  0.1253452017951870  0.1245887973975109
  0.0021193386529250  0.2493048935500865  0.2492631959588486
  0.2514437691630792  0.4986051720626973  0.2479047824213203
  0.1242205456154876  0.3739855408419784  0.1262745194648312
  0.3756633108560179  0.3727377207329434  0.1247753813078255
  0.7463096922882949  0.5000453335974083  0.2505389963603608
  0.6255969985143486  0.3737771766447163  0.1262998400947824
  0.0008755213613917  0.5000429839836419  0.2480861288694817
  0.1221677692001353  0.6254278136885683  0.1276696566887310
  0.3744470173606816  0.6235422070614012  0.1272587127605803
  0.7464087659417981  0.7504645797259784  0.2502411156451542
  0.6289567947448949  0.6251920042571909  0.1253199962963434
  0.0009788934334214  0.7508200254857136  0.2499525095573852
  0.3767457941111139  0.8768981869637686  0.1241394135989638
  0.7461363547678198  0.0005804553975421  0.2495494658726758
  0.6278370202751421  0.8768448861637869  0.1243150512386905
  0.0015563623745179  0.0013621050715040  0.2508729968431939
  0.1212748293000767  0.1257469119495196  0.3748143796337915
  0.3770255627073222  0.1264967677362195  0.3731487078558051
  0.7467227402660258  0.2511388078019903  0.5009765160755583
  0.6276675867873864  0.1262515528907452  0.3735330941267143
  0.0001851705776240  0.2505662564989000  0.5007158520680323
  0.2521378858498041  0.4975542079771129  0.5017026721105297
  0.3744114855554252  0.3764119341228861  0.3741296752676015
  0.7467971922572257  0.4992731092655754  0.5005529685133295
  0.6276896490519155  0.3743396587331779  0.3740582350822469
 -0.0011159398698801  0.4981261414795767  0.5016514293664489
  0.2506213263693773  0.7519350619003425  0.4995714498659149
  0.5012557678937481  0.7488933314039683  0.4992122277553014
  0.7475341930312176  0.7494629058995811  0.4983348004310394
  0.6271930313625657  0.6255734003085364  0.3758581275750115
  0.0009550150582276  0.7520034169150668  0.4998419629048231
  0.1221048931703939  0.8742348827866351  0.3747802059330454
  0.3756540640937189  0.8731556684462356  0.3765878551884531
  0.7473590828317243  0.0013596901591236  0.4987412651704350
  0.6280463350870162  0.8749688921825851  0.3752882502875946
  0.0022450823990697 -0.0002416363961155  0.4987772530530189
  0.2513587326801059  0.2502603643032867  0.7470599307336273
  0.5025145430368800  0.2494762705183373  0.7482499096139065
  0.3765211041157175  0.1255224619177289  0.6278426615561515
  0.6267919132981489  0.1243117330289238  0.6256390330520841
 -0.0033004795537811  0.2514258469511393  0.7500378629440597
  0.1243802186201213  0.3736492016519664  0.6237651285542752
  0.5007392257535427  0.4990945131793858  0.7486106904093743
  0.3757860390792207  0.3748050342894637  0.6270347486058849
  0.6249837846516267  0.3744934223852917  0.6246066035964996
  0.8749431104272164  0.3738858119028070  0.6224970332003723
  0.3753070416719415  0.6244289005779431  0.6225792109595731
  0.7494285661878145  0.7489918730573519  0.7509194808705066
  0.6262404178444481  0.6254817194972696  0.6246022871768522
  0.1234627983354059  0.8749796656190691  0.6226665073673430
  0.5014423118122711  0.0007538044017159  0.7507376593991895
  0.7481231464455297  0.0025937086437784  0.7517720306500170
 -0.0001364554468008 -0.0010022474637581  0.7508310837884646
  0.2507831983586249  0.2495017381620335  0.0041058120849335
  0.5023659013522446  0.2496470199547083  0.0015226661645664
  0.6234777627903022  0.1234251445492403  0.8751431948021802
 -0.0013550937251907  0.2501690686920436  0.0002940645281543
  0.8754691828146439  0.1228482468845052  0.8751854883970159
  0.7492251796564322  0.4987512225415571 -0.0004934493584503
  0.6231558655562458  0.3744714418993530  0.8754076374937897
  0.8753533199125235  0.3733237775953246  0.8762581276926433
  0.1242467115028717  0.6247464877860246  0.8758721528212188
  0.3776864697264048  0.6225961616758420  0.8740017331533396
  0.7479427578489818  0.7508402905017566  0.0009064906912280
  0.0010484203035165  0.7481850983630094 -0.0018202927269741
  0.8723234458776815  0.6271088109760700  0.8771167744857994
  0.1217755507177441  0.8767936818736821  0.8764037893010673
  0.5010713490057469 -0.0000274908755721  0.0010818184454553
  0.3781721028340866  0.8777591589380881  0.8744474893760811
  0.7470434158995187  0.0015254200180210 -0.0005359556231232
  0.6278048982278333  0.8765827677296244  0.8752409057388654
 -0.0003246021395279  0.0012135121482967 -0.0001998597389386
 
  0.00000000E+00  0.00000000E+00  0.00000000E+00
  0.00000000E+00  0.00000000E+00  0.00000000E+00
  0.00000000E+00  0.00000000E+00  0.00000000E+00
  0.00000000E+00  0.00000000E+00  0.00000000E+00
  0.00000000E+00  0.00000000E+00  0.00000000E+00
  0.00000000E+00  0.00000000E+00  0.00000000E+00
  0.00000000E+00  0.00000000E+00  0.00000000E+00
  0.00000000E+00  0.00000000E+00  0.00000000E+00
  0.00000000E+00  0.00000000E+00  0.00000000E+00
  0.00000000E+00  0.00000000E+00  0.00000000E+00
  0.00000000E+00  0.00000000E+00  0.00000000E+00
  0.00000000E+00  0.00000000E+00  0.00000000E+00
  0.00000000E+00  0.00000000E+00  0.00000000E+00
  0.00000000E+00  0.00000000E+00  0.00000000E+00
  0.00000000E+00  0.00000000E+00  0.00000000E+00
  0.00000000E+00  0.00000000E+00  0.00000000E+00
  0.00000000E+00  0.00000000E+00  0.00000000E+00
  0.00000000E+00  0.00000000E+00  0.00000000E+00
  0.00000000E+00  0.00000000E+00  0.00000000E+00
  0.00000000E+00  0.00000000E+00  0.00000000E+00
  0.00000000E+00  0.00000000E+00  0.00000000E+00
  0.00000000E+00  0.00000000E+00  0.00000000E+00
  0.00000000E+00  0.00000000E+00  0.00000000E+00
  0.00000000E+00  0.00000000E+00  0.00000000E+00
  0.00000000E+00  0.00000000E+00  0.00000000E+00
  0.00000000E+00  0.00000000E+00  0.00000000E+00
  0.00000000E+00  0.00000000E+00  0.00000000E+00
  0.00000000E+00  0.00000000E+00  0.00000000E+00
  0.00000000E+00  0.00000000E+00  0.00000000E+00
  0.00000000E+00  0.00000000E+00  0.00000000E+00
  0.00000000E+00  0.00000000E+00  0.00000000E+00
  0.00000000E+00  0.00000000E+00  0.00000000E+00
  0.00000000E+00  0.00000000E+00  0.00000000E+00
  0.00000000E+00  0.00000000E+00  0.00000000E+00
  0.00000000E+00  0.00000000E+00  0.00000000E+00
  0.00000000E+00  0.00000000E+00  0.00000000E+00
  0.00000000E+00  0.00000000E+00  0.00000000E+00
  0.00000000E+00  0.00000000E+00  0.00000000E+00
  0.00000000E+00  0.00000000E+00  0.00000000E+00
  0.00000000E+00  0.00000000E+00  0.00000000E+00
  0.00000000E+00  0.00000000E+00  0.00000000E+00
  0.00000000E+00  0.00000000E+00  0.00000000E+00
  0.00000000E+00  0.00000000E+00  0.00000000E+00
  0.00000000E+00  0.00000000E+00  0.00000000E+00
  0.00000000E+00  0.00000000E+00  0.00000000E+00
  0.00000000E+00  0.00000000E+00  0.00000000E+00
  0.00000000E+00  0.00000000E+00  0.00000000E+00
  0.00000000E+00  0.00000000E+00  0.00000000E+00
  0.00000000E+00  0.00000000E+00  0.00000000E+00
  0.00000000E+00  0.00000000E+00  0.00000000E+00
  0.00000000E+00  0.00000000E+00  0.00000000E+00
  0.00000000E+00  0.00000000E+00  0.00000000E+00
  0.00000000E+00  0.00000000E+00  0.00000000E+00
  0.00000000E+00  0.00000000E+00  0.00000000E+00
  0.00000000E+00  0.00000000E+00  0.00000000E+00
  0.00000000E+00  0.00000000E+00  0.00000000E+00
  0.00000000E+00  0.00000000E+00  0.00000000E+00
  0.00000000E+00  0.00000000E+00  0.00000000E+00
  0.00000000E+00  0.00000000E+00  0.00000000E+00
  0.00000000E+00  0.00000000E+00  0.00000000E+00
  0.00000000E+00  0.00000000E+00  0.00000000E+00
  0.00000000E+00  0.00000000E+00  0.00000000E+00
  0.00000000E+00  0.00000000E+00  0.00000000E+00
  0.00000000E+00  0.00000000E+00  0.00000000E+00
  0.00000000E+00  0.00000000E+00  0.00000000E+00
  0.00000000E+00  0.00000000E+00  0.00000000E+00
  0.00000000E+00  0.00000000E+00  0.00000000E+00
  0.00000000E+00  0.00000000E+00  0.00000000E+00
  0.00000000E+00  0.00000000E+00  0.00000000E+00
  0.00000000E+00  0.00000000E+00  0.00000000E+00
  0.00000000E+00  0.00000000E+00  0.00000000E+00
  0.00000000E+00  0.00000000E+00  0.00000000E+00
  0.00000000E+00  0.00000000E+00  0.00000000E+00
  0.00000000E+00  0.00000000E+00  0.00000000E+00
  0.00000000E+00  0.00000000E+00  0.00000000E+00
  0.00000000E+00  0.00000000E+00  0.00000000E+00
  0.00000000E+00  0.00000000E+00  0.00000000E+00
  0.00000000E+00  0.00000000E+00  0.00000000E+00
  0.00000000E+00  0.00000000E+00  0.00000000E+00
  0.00000000E+00  0.00000000E+00  0.00000000E+00
  0.00000000E+00  0.00000000E+00  0.00000000E+00
  0.00000000E+00  0.00000000E+00  0.00000000E+00
  0.00000000E+00  0.00000000E+00  0.00000000E+00
  0.00000000E+00  0.00000000E+00  0.00000000E+00
  0.00000000E+00  0.00000000E+00  0.00000000E+00
  0.00000000E+00  0.00000000E+00  0.00000000E+00
  0.00000000E+00  0.00000000E+00  0.00000000E+00
  0.00000000E+00  0.00000000E+00  0.00000000E+00
  0.00000000E+00  0.00000000E+00  0.00000000E+00
  0.00000000E+00  0.00000000E+00  0.00000000E+00
  0.00000000E+00  0.00000000E+00  0.00000000E+00
  0.00000000E+00  0.00000000E+00  0.00000000E+00
  0.00000000E+00  0.00000000E+00  0.00000000E+00
  0.00000000E+00  0.00000000E+00  0.00000000E+00
  0.00000000E+00  0.00000000E+00  0.00000000E+00
  0.00000000E+00  0.00000000E+00  0.00000000E+00
  0.00000000E+00  0.00000000E+00  0.00000000E+00
  0.00000000E+00  0.00000000E+00  0.00000000E+00
  0.00000000E+00  0.00000000E+00  0.00000000E+00
  0.00000000E+00  0.00000000E+00  0.00000000E+00
  0.00000000E+00  0.00000000E+00  0.00000000E+00
  0.00000000E+00  0.00000000E+00  0.00000000E+00
  0.00000000E+00  0.00000000E+00  0.00000000E+00
  0.00000000E+00  0.00000000E+00  0.00000000E+00
  0.00000000E+00  0.00000000E+00  0.00000000E+00
  0.00000000E+00  0.00000000E+00  0.00000000E+00
  0.00000000E+00  0.00000000E+00  0.00000000E+00
  0.00000000E+00  0.00000000E+00  0.00000000E+00
  0.00000000E+00  0.00000000E+00  0.00000000E+00
  0.00000000E+00  0.00000000E+00  0.00000000E+00
  0.00000000E+00  0.00000000E+00  0.00000000E+00
  0.00000000E+00  0.00000000E+00  0.00000000E+00
  0.00000000E+00  0.00000000E+00  0.00000000E+00
  0.00000000E+00  0.00000000E+00  0.00000000E+00
  0.00000000E+00  0.00000000E+00  0.00000000E+00
  0.00000000E+00  0.00000000E+00  0.00000000E+00
  0.00000000E+00  0.00000000E+00  0.00000000E+00
  0.00000000E+00  0.00000000E+00  0.00000000E+00
  0.00000000E+00  0.00000000E+00  0.00000000E+00
  0.00000000E+00  0.00000000E+00  0.00000000E+00
  0.00000000E+00  0.00000000E+00  0.00000000E+00
  0.00000000E+00  0.00000000E+00  0.00000000E+00
  0.00000000E+00  0.00000000E+00  0.00000000E+00
  0.00000000E+00  0.00000000E+00  0.00000000E+00
  0.00000000E+00  0.00000000E+00  0.00000000E+00
  0.00000000E+00  0.00000000E+00  0.00000000E+00
  0.00000000E+00  0.00000000E+00  0.00000000E+00
  0.00000000E+00  0.00000000E+00  0.00000000E+00
