#BCC aalvarado POSCAR generator         
    12.76000000000000     
     1.0275767232005109    0.0011941865417722   -0.0003269251875586
     0.0011938328238436    1.0277354950588860    0.0002324710831466
    -0.0003270007441309    0.0002325962749098    1.0267418432513473
   Ta   W 
   102    26
Direct
  0.4996348075356088  0.4995045524687863  0.5018045737178696
  0.6256869775743915  0.6287757218461923  0.6238856438183705
  0.6227109532707386  0.6255532901435357  0.3762865106085457
  0.6207151222796315  0.3754264184425279  0.3743205454484153
  0.3776805042894437  0.3736468218115228  0.3728367710828954
  0.6241659662701469  0.3720891113531676  0.6259398586274803
  0.3753646450071652  0.3716269430555951  0.6247378734528339
  0.3766620560470377  0.6258321779750878  0.3730896183424891
  0.3772206063049067  0.6261314983203228  0.6217916664077198
  0.7494495205401378  0.4987879806367841  0.5006836935333018
  0.7493082147652373  0.5004965221380299  0.7496301175994913
  0.4974558367562623  0.4999226750295874  0.7533248765162527
  0.4971143216601184  0.7490550284805370  0.7533951502917995
  0.7500204452487025  0.7511781350664891  0.2497283912249050
  0.7506238114359398  0.4997493584793430  0.2506385251008461
  0.5009733555876418  0.7513670947378257  0.2471678925763644
  0.7480459974496946  0.2466265948088047  0.2497711563553686
  0.5001473102215463  0.2457467448961926  0.2447363742311562
  0.7521996883295319  0.2492145204519493  0.4985287822243095
  0.2468175809268121  0.2515554996481048  0.4982331640884249
  0.2473110545868395  0.4973125822684424  0.2527187515500618
  0.2482299687897379  0.4981879308924638  0.4984234245754293
  0.4981637816813259  0.2510589617741859  0.7543279252311852
  0.2535234692717425  0.5011349893462508  0.7523734859460178
  0.2481771761040086  0.7509585036275590  0.5022188883171649
  0.2510588978846527  0.7473037443191479  0.7518766105001357
  0.8712427771698604  0.6280453537282981  0.6255373151946289
  0.8719033827086133  0.6280643463573219  0.8746423493295793
  0.6287258853343672  0.6278377969700133  0.8747567197300967
  0.6258653114691552  0.8703649112972538  0.6242730804482590
  0.6271995830995311  0.8722823987807699  0.8745745138422722
  0.8752592869796865  0.8764105390066976  0.3771533065071819
  0.8723609318241831  0.6275460573269025  0.3770921616382856
  0.6246496338669723  0.8719931074412406  0.3779257737937752
  0.8739944240454171  0.3744728426855513  0.3744082588961962
  0.8736311938756414  0.3728115755924646  0.6281223891592639
  0.8728437253284587  0.3706165880757483  0.8755954711453646
  0.6282611820045416  0.3713207045501121  0.8755649973598661
  0.3748907172658026  0.8725259321202490  0.3736548610100565
  0.3749127424929123  0.8761775656934381  0.6255954555825639
  0.3711195232149901  0.8808472642953249  0.8750093761631518
  0.8762008030782856  0.8761985477353103  0.1213592011274109
  0.8733747594357087  0.6269343538627767  0.1230601059722421
  0.6234973746360799  0.6237248231752869  0.1248924793830827
  0.6261114098884338  0.8719142986580912  0.1222543652093693
  0.8738742969061872  0.3721911557857679  0.1230155513880111
  0.6233567940338973  0.3765520011162050  0.1251018920446126
  0.3726969186990898  0.3754060462871803  0.1256554971693208
  0.3733575556417899  0.6225176414417475  0.1277588080515747
  0.3710163201206900  0.8749830300732655  0.1240152182821803
  0.8764589919660341  0.1241197414874258  0.1207669387144054
  0.8778500019123467  0.1220393027556783  0.3768287364165402
  0.6226459164804755  0.1259867646088347  0.3781604867572274
  0.3747100103354573  0.1286679049341377  0.3747176263451434
  0.8782760192853286  0.1231643032685514  0.6276353768406578
  0.6254739555115537  0.1274036151168277  0.6262344352566673
  0.3730182345940094  0.1270109883870621  0.6273866807995463
  0.1254404849963522  0.1239758700367606  0.3750027180134722
  0.1300703814742550  0.3730040633928150  0.1224960302738514
  0.1248881284179330  0.1224327260731138  0.6286766798394284
  0.1277394175262487  0.3725882752658282  0.6294141553668049
  0.1278050063047527  0.6250507815341718  0.1247201893432956
  0.1265886222787337  0.6288436101226790  0.3728234320139798
  0.1246020241007508  0.6254424285091761  0.6257513891174933
  0.8771791834550240  0.1244836656761193  0.8749545732530543
  0.6287770734697050  0.1272195953225922  0.8734551281127726
  0.3689870146844659  0.1246826001679909  0.8748931491489835
  0.1269855317970663  0.1231106960266199  0.8750549519032300
  0.1287377894349097  0.3724617920330853  0.8776471257405539
  0.1242707466985725  0.6230887398360921  0.8773014898162280
  0.1260074772475320  0.8769420163137897  0.1218766057836846
  0.1249876405464813  0.8761674231659166  0.3743715681766953
  0.1239423101748418  0.8808263569602247  0.6278294332876611
  0.1247007342741338  0.8819258016585153  0.8742898983433492
 -0.0018835690771705  0.7529152245114824  0.7503392537419161
  0.0002297496441104  0.7515886389998978 -0.0027032030750363
  0.7526877327461827 -0.0038385767615179  0.7500717540677651
  0.7492150680934820 -0.0005366220733684 -0.0013232773454721
 -0.0007042288809821  0.7517496790849445  0.5025992266553799
  0.7506576626249414 -0.0007174265660484  0.5025156334076181
  0.0017671708288251  0.4988668849517058  0.4991654303979841
 -0.0000958353933892  0.5000165661148247  0.7510971503134987
 -0.0006326075558505  0.4993530074864813  0.0003115872288607
  0.7495384135268885  0.4996012253120793 -0.0003289174454555
  0.4976377151303969  0.4994254466884624 -0.0041082075258779
  0.4959153692531455  0.7484029277055527 -0.0024398450752388
  0.4992870861167510  0.0003525283247795  0.5005189047709537
  0.5019814398889567 -0.0000445066864052  0.7508201959579893
  0.5011103323507238  0.0032613784125693  0.0022508503756122
  0.0021147245225468  0.0022937518704154  0.2473209876787303
 -0.0015684139018741  0.7513963364796084  0.2489638908750026
  0.7478794914201776  0.0015523038324085  0.2479956364087571
  0.0018783900767401  0.4978941324717828  0.2511679282669162
  0.4997794990590212  0.0025757939908089  0.2461735414150150
  0.0032512034272938  0.2491315366161389  0.2494984120700745
  0.0025540985686102  0.2520132386435546  0.4986475302403769
  0.0015435505194270  0.2502003288894830  0.7513851377860844
  0.0034937797724036  0.2482657092708893  0.0020323807724592
  0.4977216743398329  0.2483008455389480  0.0013103301462450
  0.2512612950504313  0.7486695027684984 -0.0040646719874753
  0.2502175075197308  0.0041322518214533  0.2474488023956877
  0.2516378847966065  0.0009499883591101  0.4983029639616758
  0.2500665933147627  0.0029877007264983  0.0025221966964822
  0.7520888709557935  0.7527492313038403  0.7498048529054323
  0.7517073165970520  0.7514852836688731  0.5009138224219133
  0.4993464876905134  0.7500064773893633  0.5001818534069528
  0.4989105843123864  0.4992324820443627  0.2491310609623359
  0.4989585427221362  0.2498294227061450  0.5000804690060302
  0.2496624492825821  0.2489937770612740  0.2489657913318926
  0.7507860833542476  0.2486137969023168  0.7499598541804656
  0.2513157329993633  0.2520865586816925  0.7519394515720559
  0.2494968479037960  0.7507860370170608  0.2488608011420211
  0.8760435723019528  0.8760555465692959  0.8743382151799231
  0.8754418602627454  0.8758275523587464  0.6255450093727652
  0.3721942430333608  0.3721846168543139  0.8772516804655757
  0.3741640297010406  0.6235669237211111  0.8765892692682915
  0.6262171898531220  0.1258413876460013  0.1226334106446552
  0.3713062095670886  0.1268052198693680  0.1227545377189358
  0.1269874669175676  0.1252157005006321  0.1219627834305891
  0.1272735284730805  0.3734313421639472  0.3730674307888369
  0.0000696396647595  0.0006026897615870 -0.0004535508447494
 -0.0026133000373865 -0.0015236093133349  0.7508797304290490
  0.7507091545144857  0.7517029386297961 -0.0012801750491034
 -0.0004685214758557 -0.0006960873859742  0.5010089830379477
  0.7487960125142724  0.2473151858912087  0.0023289934322231
  0.2516496476568185  0.2486827826450330  0.0017445194278860
  0.2525850956968211  0.4992739656692213 -0.0015540156784438
  0.2498771778492734  0.0005496341296188  0.7500753998080849
 
  0.00000000E+00  0.00000000E+00  0.00000000E+00
  0.00000000E+00  0.00000000E+00  0.00000000E+00
  0.00000000E+00  0.00000000E+00  0.00000000E+00
  0.00000000E+00  0.00000000E+00  0.00000000E+00
  0.00000000E+00  0.00000000E+00  0.00000000E+00
  0.00000000E+00  0.00000000E+00  0.00000000E+00
  0.00000000E+00  0.00000000E+00  0.00000000E+00
  0.00000000E+00  0.00000000E+00  0.00000000E+00
  0.00000000E+00  0.00000000E+00  0.00000000E+00
  0.00000000E+00  0.00000000E+00  0.00000000E+00
  0.00000000E+00  0.00000000E+00  0.00000000E+00
  0.00000000E+00  0.00000000E+00  0.00000000E+00
  0.00000000E+00  0.00000000E+00  0.00000000E+00
  0.00000000E+00  0.00000000E+00  0.00000000E+00
  0.00000000E+00  0.00000000E+00  0.00000000E+00
  0.00000000E+00  0.00000000E+00  0.00000000E+00
  0.00000000E+00  0.00000000E+00  0.00000000E+00
  0.00000000E+00  0.00000000E+00  0.00000000E+00
  0.00000000E+00  0.00000000E+00  0.00000000E+00
  0.00000000E+00  0.00000000E+00  0.00000000E+00
  0.00000000E+00  0.00000000E+00  0.00000000E+00
  0.00000000E+00  0.00000000E+00  0.00000000E+00
  0.00000000E+00  0.00000000E+00  0.00000000E+00
  0.00000000E+00  0.00000000E+00  0.00000000E+00
  0.00000000E+00  0.00000000E+00  0.00000000E+00
  0.00000000E+00  0.00000000E+00  0.00000000E+00
  0.00000000E+00  0.00000000E+00  0.00000000E+00
  0.00000000E+00  0.00000000E+00  0.00000000E+00
  0.00000000E+00  0.00000000E+00  0.00000000E+00
  0.00000000E+00  0.00000000E+00  0.00000000E+00
  0.00000000E+00  0.00000000E+00  0.00000000E+00
  0.00000000E+00  0.00000000E+00  0.00000000E+00
  0.00000000E+00  0.00000000E+00  0.00000000E+00
  0.00000000E+00  0.00000000E+00  0.00000000E+00
  0.00000000E+00  0.00000000E+00  0.00000000E+00
  0.00000000E+00  0.00000000E+00  0.00000000E+00
  0.00000000E+00  0.00000000E+00  0.00000000E+00
  0.00000000E+00  0.00000000E+00  0.00000000E+00
  0.00000000E+00  0.00000000E+00  0.00000000E+00
  0.00000000E+00  0.00000000E+00  0.00000000E+00
  0.00000000E+00  0.00000000E+00  0.00000000E+00
  0.00000000E+00  0.00000000E+00  0.00000000E+00
  0.00000000E+00  0.00000000E+00  0.00000000E+00
  0.00000000E+00  0.00000000E+00  0.00000000E+00
  0.00000000E+00  0.00000000E+00  0.00000000E+00
  0.00000000E+00  0.00000000E+00  0.00000000E+00
  0.00000000E+00  0.00000000E+00  0.00000000E+00
  0.00000000E+00  0.00000000E+00  0.00000000E+00
  0.00000000E+00  0.00000000E+00  0.00000000E+00
  0.00000000E+00  0.00000000E+00  0.00000000E+00
  0.00000000E+00  0.00000000E+00  0.00000000E+00
  0.00000000E+00  0.00000000E+00  0.00000000E+00
  0.00000000E+00  0.00000000E+00  0.00000000E+00
  0.00000000E+00  0.00000000E+00  0.00000000E+00
  0.00000000E+00  0.00000000E+00  0.00000000E+00
  0.00000000E+00  0.00000000E+00  0.00000000E+00
  0.00000000E+00  0.00000000E+00  0.00000000E+00
  0.00000000E+00  0.00000000E+00  0.00000000E+00
  0.00000000E+00  0.00000000E+00  0.00000000E+00
  0.00000000E+00  0.00000000E+00  0.00000000E+00
  0.00000000E+00  0.00000000E+00  0.00000000E+00
  0.00000000E+00  0.00000000E+00  0.00000000E+00
  0.00000000E+00  0.00000000E+00  0.00000000E+00
  0.00000000E+00  0.00000000E+00  0.00000000E+00
  0.00000000E+00  0.00000000E+00  0.00000000E+00
  0.00000000E+00  0.00000000E+00  0.00000000E+00
  0.00000000E+00  0.00000000E+00  0.00000000E+00
  0.00000000E+00  0.00000000E+00  0.00000000E+00
  0.00000000E+00  0.00000000E+00  0.00000000E+00
  0.00000000E+00  0.00000000E+00  0.00000000E+00
  0.00000000E+00  0.00000000E+00  0.00000000E+00
  0.00000000E+00  0.00000000E+00  0.00000000E+00
  0.00000000E+00  0.00000000E+00  0.00000000E+00
  0.00000000E+00  0.00000000E+00  0.00000000E+00
  0.00000000E+00  0.00000000E+00  0.00000000E+00
  0.00000000E+00  0.00000000E+00  0.00000000E+00
  0.00000000E+00  0.00000000E+00  0.00000000E+00
  0.00000000E+00  0.00000000E+00  0.00000000E+00
  0.00000000E+00  0.00000000E+00  0.00000000E+00
  0.00000000E+00  0.00000000E+00  0.00000000E+00
  0.00000000E+00  0.00000000E+00  0.00000000E+00
  0.00000000E+00  0.00000000E+00  0.00000000E+00
  0.00000000E+00  0.00000000E+00  0.00000000E+00
  0.00000000E+00  0.00000000E+00  0.00000000E+00
  0.00000000E+00  0.00000000E+00  0.00000000E+00
  0.00000000E+00  0.00000000E+00  0.00000000E+00
  0.00000000E+00  0.00000000E+00  0.00000000E+00
  0.00000000E+00  0.00000000E+00  0.00000000E+00
  0.00000000E+00  0.00000000E+00  0.00000000E+00
  0.00000000E+00  0.00000000E+00  0.00000000E+00
  0.00000000E+00  0.00000000E+00  0.00000000E+00
  0.00000000E+00  0.00000000E+00  0.00000000E+00
  0.00000000E+00  0.00000000E+00  0.00000000E+00
  0.00000000E+00  0.00000000E+00  0.00000000E+00
  0.00000000E+00  0.00000000E+00  0.00000000E+00
  0.00000000E+00  0.00000000E+00  0.00000000E+00
  0.00000000E+00  0.00000000E+00  0.00000000E+00
  0.00000000E+00  0.00000000E+00  0.00000000E+00
  0.00000000E+00  0.00000000E+00  0.00000000E+00
  0.00000000E+00  0.00000000E+00  0.00000000E+00
  0.00000000E+00  0.00000000E+00  0.00000000E+00
  0.00000000E+00  0.00000000E+00  0.00000000E+00
  0.00000000E+00  0.00000000E+00  0.00000000E+00
  0.00000000E+00  0.00000000E+00  0.00000000E+00
  0.00000000E+00  0.00000000E+00  0.00000000E+00
  0.00000000E+00  0.00000000E+00  0.00000000E+00
  0.00000000E+00  0.00000000E+00  0.00000000E+00
  0.00000000E+00  0.00000000E+00  0.00000000E+00
  0.00000000E+00  0.00000000E+00  0.00000000E+00
  0.00000000E+00  0.00000000E+00  0.00000000E+00
  0.00000000E+00  0.00000000E+00  0.00000000E+00
  0.00000000E+00  0.00000000E+00  0.00000000E+00
  0.00000000E+00  0.00000000E+00  0.00000000E+00
  0.00000000E+00  0.00000000E+00  0.00000000E+00
  0.00000000E+00  0.00000000E+00  0.00000000E+00
  0.00000000E+00  0.00000000E+00  0.00000000E+00
  0.00000000E+00  0.00000000E+00  0.00000000E+00
  0.00000000E+00  0.00000000E+00  0.00000000E+00
  0.00000000E+00  0.00000000E+00  0.00000000E+00
  0.00000000E+00  0.00000000E+00  0.00000000E+00
  0.00000000E+00  0.00000000E+00  0.00000000E+00
  0.00000000E+00  0.00000000E+00  0.00000000E+00
  0.00000000E+00  0.00000000E+00  0.00000000E+00
  0.00000000E+00  0.00000000E+00  0.00000000E+00
  0.00000000E+00  0.00000000E+00  0.00000000E+00
  0.00000000E+00  0.00000000E+00  0.00000000E+00
  0.00000000E+00  0.00000000E+00  0.00000000E+00
  0.00000000E+00  0.00000000E+00  0.00000000E+00
