#generated using str2pos                
    1.000000000000000     
    12.9427306069697554    0.0018108173367439   -0.0005520662719650
     0.0018097192414487   12.9732635533733163   -0.0192483371956167
    -0.0005516131827902   -0.0192531319372986   12.9578526626334991
   Ta   W 
    70    58
Direct
  0.1237882974968378  0.1266460892577264  0.1306601117146359
  0.4993269333131858  0.2511416756505053  0.2458617854339688
  0.6268470452616600  0.1208631994591171  0.1265625533386220
  0.8741581188030948  0.1244076119281080  0.1295190559006821
  0.1242901031048193  0.3772593168770688  0.1277756583585151
  0.5012226117106284  0.5032896040417741  0.2489870437112896
  0.3695865606931641  0.3770504042911292  0.1256692343951273
  0.7473758902017381  0.5029947656894702  0.2503935293439353
  0.8784972997321510  0.3755202334309616  0.1288669709001105
  0.2503480123215417  0.7506514050583910  0.2519574711513658
  0.1259292381071999  0.6218065380156728  0.1241645277701406
  0.4994805035936317  0.7478516031930250  0.2522150777531829
  0.0023531601479521  0.7515286198450692  0.2535612731885529
  0.8784767368880041  0.6241205576402181  0.1271269757186070
  0.3757939691240691  0.8765157415934655  0.1244090059049918
  0.6252791781656148  0.8786275194599873  0.1266135079531532
  0.8727011318853006  0.8768701162695233  0.1270136710200232
  0.1248225348634714  0.1282544950725416  0.3728066277526036
  0.3750930743496023  0.1253227486029223  0.3751341477618805
  0.6258578147466662  0.1236495732496886  0.3750719610228067
  0.8742862907844632  0.1262117946140542  0.3738674277671173
  0.1245186525513435  0.3752131807999846  0.3750090643145489
  0.3723031161866867  0.3747464735981493  0.3768317445058391
  0.6258283552695408  0.3734721530321402  0.3787781648307896
  0.8761800925601555  0.3737535318581718  0.3755526852697095
  0.2485707908228789  0.7498071163527699  0.4982613542280204
  0.5022245598912118  0.7496347587393107  0.4982817369344618
  0.7481487543366475  0.7497226761700506  0.4980754383505035
  0.0018298682748064  0.7501329031907270  0.4980786129408261
  0.2485977583308646 -0.0056127663348333  0.4985886664426161
  0.0016879960697452 -0.0055115272922819  0.4991981335602292
  0.1260052532842248  0.1295265815441557  0.6212180883817875
  0.5020639781427917  0.2495876995609387  0.7515288788424435
  0.3760329075539506  0.1255134847921874  0.6230781075490305
  0.7517525286604751  0.2488719456931603  0.7538140454532006
  0.6240042927835520  0.1242382856598621  0.6203873763030440
 -0.0009505580007447  0.2514834195018488  0.7543146310351803
  0.8742291134286709  0.1258785252301895  0.6195063735118441
  0.1268039198071797  0.3754596443917497  0.6222236488164757
  0.5013094783399443  0.5036626439014781  0.7513544769053787
  0.3732485481277340  0.3751343943373454  0.6227591010882336
  0.7509713299787663  0.5016336389602983  0.7528544703039511
  0.6249676457772204  0.3740799974135889  0.6203344367242575
  0.0007944043449003  0.5008682714240110  0.7525784704907865
  0.8753896801915408  0.3759472973206298  0.6196898930096587
  0.5018374213927749  0.7469525237720014  0.7496233462613754
  0.3725817272255220  0.6226261703589628  0.6246763198624337
  0.8758929762636662  0.6249506488042661  0.6248043919804422
  0.2456059540280559 -0.0020839494192862  0.7501050740959667
  0.3763275733864593  0.8744092576732194  0.6267780408539966
  0.7500305979010762  0.0017800280513377  0.7499415665443392
  0.0015571880575933  0.0004625342661014  0.7516075839419681
  0.8736629592493251  0.8724870803873310  0.6265905932786677
  0.2478219523625357  0.2482284122365755 -0.0012565828116401
  0.5005464519582340  0.2499926621272890  0.0021893940930430
  0.3762684675523796  0.1234601382979088  0.8722128581896181
  0.7506788846019115  0.2514889781831212 -0.0019993574639747
 -0.0004633805006378  0.2494699696874843 -0.0045196625600816
  0.5003224827549726  0.5032503495787438  0.0019791754188574
  0.3714608988423443  0.3762056686965252  0.8735326680442166
  0.7487451352016803  0.5005859906790114  0.0000946084333901
  0.6232528610302420  0.3750634931826197  0.8743756396155378
  0.5004397794897879  0.7453737290632103  0.0009277980236232
  0.7492572539339547  0.7456641686206158  0.0001310885239731
  0.0023141857613306  0.7504077702140436 -0.0009783382256793
  0.2466004881794749  0.0005578628144131 -0.0002904476046889
  0.3760536670375624  0.8745976394929351  0.8749818772450532
  0.6251854458750032  0.8770442507955450  0.8758580450547151
  0.0026477499196400  0.0000409046011046 -0.0020910084221608
  0.8729412165440320  0.8728478082633080  0.8739898266853162
  0.2517045743722963  0.2496215897524924  0.2481472093241135
  0.3745301949446773  0.1230679531060306  0.1264347382335879
  0.7478938599945062  0.2517472730643724  0.2482042425115944
 -0.0000851706091812  0.2507600027763224  0.2494033494238681
  0.2513166356220013  0.5041022339510136  0.2512447699623042
  0.6259452822939819  0.3735478047059450  0.1272268308790333
 -0.0002906767336780  0.5033802601126363  0.2528253508406704
  0.3712102976986546  0.6250526032954610  0.1247683789036875
  0.7495304675196273  0.7489207540863722  0.2532929390355645
  0.6264648902764369  0.6275698140185824  0.1272064849457477
  0.2502824983886315 -0.0028168581259027  0.2495787570265140
  0.1265191007259441  0.8755577711214630  0.1257587487347214
  0.4986822595803806 -0.0014635074084019  0.2512222239758091
  0.7500630374536745 -0.0024743166459861  0.2525009350306175
  0.0008700668615355 -0.0037060274155763  0.2511299099634645
  0.2500805803876182  0.2502094858705801  0.4992557149539451
  0.4996671116162397  0.2492028039245244  0.4986005453044666
  0.7501471134482657  0.2496326340408853  0.4997253230828136
  0.0001423348837610  0.2503776980372676  0.5001964092720179
  0.2489454115692123  0.5036955399708031  0.4992623100821258
  0.4996797492429459  0.5036796309581182  0.4987278690694014
  0.7498377916840241  0.5042471328386170  0.4990478892724287
  0.0015089176858598  0.5041589792917460  0.5000673411307461
  0.1253387837431348  0.6211735225289394  0.3752505021270877
  0.3738171161242114  0.6221636359631740  0.3765240499207971
  0.6257793167698358  0.6248089108796590  0.3762919498387734
  0.8757543959606839  0.6232655076707899  0.3758582035288570
  0.1252086852153385  0.8758593157875753  0.3732961915888124
  0.5001883597147709 -0.0044946342997563  0.4983168777166533
  0.3769700748615258  0.8775203636719440  0.3737334124392471
  0.7492276755818315 -0.0047055759508360  0.4990794522782032
  0.6258910671543274  0.8771962119860610  0.3739963201494845
  0.8726999049648474  0.8766553243999397  0.3737022683357700
  0.2476391439355370  0.2503014093715387  0.7513124608875692
  0.2474033933571854  0.5027411610346567  0.7511160396360933
  0.2480830008640980  0.7489088445448890  0.7504392239822625
  0.1256811252122818  0.6234101814163335  0.6262835447286669
  0.7483318117478450  0.7482781827785107  0.7491985458828987
  0.6262727923578727  0.6239030931105269  0.6233248140131692
  0.0028153140025499  0.7484345742716556  0.7504854271269086
  0.1249986664625880  0.8718615531209174  0.6266687849254731
  0.5019577688407956 -0.0012459197310878  0.7487695575274782
  0.6250015346828156  0.8763418450595224  0.6244414405892379
  0.1264142550091218  0.1261369632125744  0.8737585096106434
  0.6228712108336796  0.1211272833085409  0.8761738342726022
  0.8737024905077796  0.1231979440079224  0.8762874397393030
  0.2495833475776289  0.5021437091057798 -0.0015225050718108
  0.1271751240200198  0.3789582766789608  0.8749347834857832
  0.0001765764603323  0.5002552109452040 -0.0031389537654678
  0.8763997902161372  0.3771680018619668  0.8768030870899794
  0.2496157771798006  0.7493955232764062 -0.0004928478883396
  0.1268962494058166  0.6252496235925180  0.8753120635222514
  0.3701677188308646  0.6252720041583428  0.8748235232028642
  0.6259011986108448  0.6269372894966879  0.8741810877313579
  0.8780360088655070  0.6267655727963304  0.8744633261331725
  0.1258369431979377  0.8701969419500999  0.8738592410127938
  0.4987836582156119  0.0011296072135838  0.0003719954366709
  0.7511364805496183  0.0019252519383224 -0.0015316394069323
 
  0.00000000E+00  0.00000000E+00  0.00000000E+00
  0.00000000E+00  0.00000000E+00  0.00000000E+00
  0.00000000E+00  0.00000000E+00  0.00000000E+00
  0.00000000E+00  0.00000000E+00  0.00000000E+00
  0.00000000E+00  0.00000000E+00  0.00000000E+00
  0.00000000E+00  0.00000000E+00  0.00000000E+00
  0.00000000E+00  0.00000000E+00  0.00000000E+00
  0.00000000E+00  0.00000000E+00  0.00000000E+00
  0.00000000E+00  0.00000000E+00  0.00000000E+00
  0.00000000E+00  0.00000000E+00  0.00000000E+00
  0.00000000E+00  0.00000000E+00  0.00000000E+00
  0.00000000E+00  0.00000000E+00  0.00000000E+00
  0.00000000E+00  0.00000000E+00  0.00000000E+00
  0.00000000E+00  0.00000000E+00  0.00000000E+00
  0.00000000E+00  0.00000000E+00  0.00000000E+00
  0.00000000E+00  0.00000000E+00  0.00000000E+00
  0.00000000E+00  0.00000000E+00  0.00000000E+00
  0.00000000E+00  0.00000000E+00  0.00000000E+00
  0.00000000E+00  0.00000000E+00  0.00000000E+00
  0.00000000E+00  0.00000000E+00  0.00000000E+00
  0.00000000E+00  0.00000000E+00  0.00000000E+00
  0.00000000E+00  0.00000000E+00  0.00000000E+00
  0.00000000E+00  0.00000000E+00  0.00000000E+00
  0.00000000E+00  0.00000000E+00  0.00000000E+00
  0.00000000E+00  0.00000000E+00  0.00000000E+00
  0.00000000E+00  0.00000000E+00  0.00000000E+00
  0.00000000E+00  0.00000000E+00  0.00000000E+00
  0.00000000E+00  0.00000000E+00  0.00000000E+00
  0.00000000E+00  0.00000000E+00  0.00000000E+00
  0.00000000E+00  0.00000000E+00  0.00000000E+00
  0.00000000E+00  0.00000000E+00  0.00000000E+00
  0.00000000E+00  0.00000000E+00  0.00000000E+00
  0.00000000E+00  0.00000000E+00  0.00000000E+00
  0.00000000E+00  0.00000000E+00  0.00000000E+00
  0.00000000E+00  0.00000000E+00  0.00000000E+00
  0.00000000E+00  0.00000000E+00  0.00000000E+00
  0.00000000E+00  0.00000000E+00  0.00000000E+00
  0.00000000E+00  0.00000000E+00  0.00000000E+00
  0.00000000E+00  0.00000000E+00  0.00000000E+00
  0.00000000E+00  0.00000000E+00  0.00000000E+00
  0.00000000E+00  0.00000000E+00  0.00000000E+00
  0.00000000E+00  0.00000000E+00  0.00000000E+00
  0.00000000E+00  0.00000000E+00  0.00000000E+00
  0.00000000E+00  0.00000000E+00  0.00000000E+00
  0.00000000E+00  0.00000000E+00  0.00000000E+00
  0.00000000E+00  0.00000000E+00  0.00000000E+00
  0.00000000E+00  0.00000000E+00  0.00000000E+00
  0.00000000E+00  0.00000000E+00  0.00000000E+00
  0.00000000E+00  0.00000000E+00  0.00000000E+00
  0.00000000E+00  0.00000000E+00  0.00000000E+00
  0.00000000E+00  0.00000000E+00  0.00000000E+00
  0.00000000E+00  0.00000000E+00  0.00000000E+00
  0.00000000E+00  0.00000000E+00  0.00000000E+00
  0.00000000E+00  0.00000000E+00  0.00000000E+00
  0.00000000E+00  0.00000000E+00  0.00000000E+00
  0.00000000E+00  0.00000000E+00  0.00000000E+00
  0.00000000E+00  0.00000000E+00  0.00000000E+00
  0.00000000E+00  0.00000000E+00  0.00000000E+00
  0.00000000E+00  0.00000000E+00  0.00000000E+00
  0.00000000E+00  0.00000000E+00  0.00000000E+00
  0.00000000E+00  0.00000000E+00  0.00000000E+00
  0.00000000E+00  0.00000000E+00  0.00000000E+00
  0.00000000E+00  0.00000000E+00  0.00000000E+00
  0.00000000E+00  0.00000000E+00  0.00000000E+00
  0.00000000E+00  0.00000000E+00  0.00000000E+00
  0.00000000E+00  0.00000000E+00  0.00000000E+00
  0.00000000E+00  0.00000000E+00  0.00000000E+00
  0.00000000E+00  0.00000000E+00  0.00000000E+00
  0.00000000E+00  0.00000000E+00  0.00000000E+00
  0.00000000E+00  0.00000000E+00  0.00000000E+00
  0.00000000E+00  0.00000000E+00  0.00000000E+00
  0.00000000E+00  0.00000000E+00  0.00000000E+00
  0.00000000E+00  0.00000000E+00  0.00000000E+00
  0.00000000E+00  0.00000000E+00  0.00000000E+00
  0.00000000E+00  0.00000000E+00  0.00000000E+00
  0.00000000E+00  0.00000000E+00  0.00000000E+00
  0.00000000E+00  0.00000000E+00  0.00000000E+00
  0.00000000E+00  0.00000000E+00  0.00000000E+00
  0.00000000E+00  0.00000000E+00  0.00000000E+00
  0.00000000E+00  0.00000000E+00  0.00000000E+00
  0.00000000E+00  0.00000000E+00  0.00000000E+00
  0.00000000E+00  0.00000000E+00  0.00000000E+00
  0.00000000E+00  0.00000000E+00  0.00000000E+00
  0.00000000E+00  0.00000000E+00  0.00000000E+00
  0.00000000E+00  0.00000000E+00  0.00000000E+00
  0.00000000E+00  0.00000000E+00  0.00000000E+00
  0.00000000E+00  0.00000000E+00  0.00000000E+00
  0.00000000E+00  0.00000000E+00  0.00000000E+00
  0.00000000E+00  0.00000000E+00  0.00000000E+00
  0.00000000E+00  0.00000000E+00  0.00000000E+00
  0.00000000E+00  0.00000000E+00  0.00000000E+00
  0.00000000E+00  0.00000000E+00  0.00000000E+00
  0.00000000E+00  0.00000000E+00  0.00000000E+00
  0.00000000E+00  0.00000000E+00  0.00000000E+00
  0.00000000E+00  0.00000000E+00  0.00000000E+00
  0.00000000E+00  0.00000000E+00  0.00000000E+00
  0.00000000E+00  0.00000000E+00  0.00000000E+00
  0.00000000E+00  0.00000000E+00  0.00000000E+00
  0.00000000E+00  0.00000000E+00  0.00000000E+00
  0.00000000E+00  0.00000000E+00  0.00000000E+00
  0.00000000E+00  0.00000000E+00  0.00000000E+00
  0.00000000E+00  0.00000000E+00  0.00000000E+00
  0.00000000E+00  0.00000000E+00  0.00000000E+00
  0.00000000E+00  0.00000000E+00  0.00000000E+00
  0.00000000E+00  0.00000000E+00  0.00000000E+00
  0.00000000E+00  0.00000000E+00  0.00000000E+00
  0.00000000E+00  0.00000000E+00  0.00000000E+00
  0.00000000E+00  0.00000000E+00  0.00000000E+00
  0.00000000E+00  0.00000000E+00  0.00000000E+00
  0.00000000E+00  0.00000000E+00  0.00000000E+00
  0.00000000E+00  0.00000000E+00  0.00000000E+00
  0.00000000E+00  0.00000000E+00  0.00000000E+00
  0.00000000E+00  0.00000000E+00  0.00000000E+00
  0.00000000E+00  0.00000000E+00  0.00000000E+00
  0.00000000E+00  0.00000000E+00  0.00000000E+00
  0.00000000E+00  0.00000000E+00  0.00000000E+00
  0.00000000E+00  0.00000000E+00  0.00000000E+00
  0.00000000E+00  0.00000000E+00  0.00000000E+00
  0.00000000E+00  0.00000000E+00  0.00000000E+00
  0.00000000E+00  0.00000000E+00  0.00000000E+00
  0.00000000E+00  0.00000000E+00  0.00000000E+00
  0.00000000E+00  0.00000000E+00  0.00000000E+00
  0.00000000E+00  0.00000000E+00  0.00000000E+00
  0.00000000E+00  0.00000000E+00  0.00000000E+00
  0.00000000E+00  0.00000000E+00  0.00000000E+00
  0.00000000E+00  0.00000000E+00  0.00000000E+00
  0.00000000E+00  0.00000000E+00  0.00000000E+00
  0.00000000E+00  0.00000000E+00  0.00000000E+00
