#BCC aalvarado POSCAR generator         
    12.76000000000000     
     1.0087622986675047    0.0001675113359215    0.0001208093572219
     0.0001674881197415    1.0089624248465177   -0.0006744458370845
     0.0001209784698226   -0.0006752493802611    1.0085708000962803
   Ta   W 
    51    77
Direct
  0.4980000745647193  0.5028499347802642  0.5006618219330202
  0.6284855520338365  0.6267330579268957  0.3761157554504279
  0.6235332648565740  0.3769871036180596  0.6239280704981384
  0.3723003633557807  0.6297453305287327  0.3761241718022671
  0.7495808190226247  0.4985207576156349  0.7521719447736012
  0.5000859881243872  0.5027554969351299  0.2489293874770201
  0.4998034444633819  0.7531547518501527  0.2494422273960006
  0.7524189492929467  0.2498023238773848  0.5028835020945404
  0.2456920969157290  0.4991679525572114  0.2510233575526187
  0.2467558363031738  0.5033563156118437  0.4998881948333226
  0.7496357999241560  0.2496188357358060  0.7493401336619196
  0.5025647981870908  0.2472465211986440  0.7505368170028708
  0.2495905215678132  0.2481415063286002  0.7515898327308276
  0.8751930792785559  0.8718399301364788  0.6265400453452693
  0.8766085287711405  0.6263229122713649  0.6244944773608089
  0.8777600324815614  0.6265853508223433  0.8750253914618714
  0.6237201111557746  0.8739538638384101  0.6269267698333750
  0.6240780692446254  0.8735955743305784  0.8738748109127690
  0.8750029783336448  0.8718185074219371  0.3740674861834326
  0.8779543582015038  0.3751351545704756  0.8781551136316258
  0.3755332725905940  0.3775678945991997  0.8762430140764426
  0.8751715744172180  0.8728120506820940  0.1250500978528077
  0.6258174959166438  0.8747745681024420  0.1231472179719239
  0.6252010161053650  0.3726681209801034  0.1255024565968627
  0.3755651486689978  0.3739618940137159  0.1238088526889934
  0.3734853000397882  0.6254394992038929  0.1218502394750277
  0.6246343280157146  0.1266931416568106  0.1254020642185450
  0.8746888839072808  0.1265321603433040  0.3734991219596298
  0.6233995784858302  0.1264038305607106  0.3735573930099625
  0.1260438967618824  0.1244694000127882  0.6224670279613563
  0.1245241870878252  0.3764114747269870  0.6241297607292849
  0.1225193536400496  0.6253969922829182  0.1245380224158368
  0.8762017649985691  0.1235823157163660  0.8767664561906420
  0.3769837947520863  0.1215788081726045  0.8772818738201286
  0.1246074943778177  0.8746310618499280  0.1243517775346012
  0.1239218262484147  0.8737678245366101  0.8745901370441242
  0.7510404640563505  0.0003142572500523 -0.0011483223283819
  0.0023961625471212 -0.0006237486431072  0.4994689486998953
  0.7491314502588001  0.0014734147463002  0.5015330838247649
  0.7499240990484097  0.5009290838777333  0.0012312549298352
  0.0029763656358927  0.0022067108625706  0.2500952176731562
  0.4958281220780759 -0.0016634473041043  0.2509405371622622
  0.0012335159231559  0.2514950091271675  0.2488076377249385
  0.0002314810542569  0.2497708184877221  0.7503485139067713
  0.2471178391994343  0.2480673553471911  0.0013959887543852
  0.2516262880650367  0.7501224315439963 -0.0032718187530330
  0.2512148898006781 -0.0024086064262753  0.7486918318069978
  0.6253211089576541  0.6280032460983793  0.6253441751913090
  0.6260745982130349  0.3747489906468589  0.3737873706152853
  0.3740494772657135  0.3706896407389898  0.3748629744139558
  0.3741218965948159  0.3753651433407438  0.6252884567098418
  0.3738851778884391  0.6280145388580032  0.6275132806678028
  0.7500833044299222  0.7496056897102906  0.7520937856746903
  0.7506684236347760  0.7505111653002171  0.4983268038514782
  0.7535723293583990  0.4992335795303876  0.4995054298949048
  0.4996502534202533  0.5021954945585383  0.7518035755823322
  0.4968829706125770  0.7533757534547244  0.5006035361572113
  0.4968678074921860  0.7497644506879839  0.7507889272773045
  0.7502041732247730  0.7478593992746552  0.2495147784483732
  0.7533860968682523  0.5012284659069541  0.2486817188003900
  0.7537189318457562  0.2518745931521049  0.2495791880537259
  0.4975781886520491  0.2473421721839378  0.2498253239192005
  0.4988549885126113  0.2470630223078632  0.5015085446269156
  0.2472445469498818  0.2478025497338177  0.2495614104757298
  0.2493720746092491  0.2476695899331383  0.4980027733967514
  0.2493770389925676  0.5029295372617723  0.7502883427273206
  0.2492078735036635  0.7525370391177429  0.2515189153246938
  0.2487058518090551  0.7521640773074030  0.5010374388472078
  0.2506475042517645  0.7493519774618541  0.7481449036148327
  0.8758814876196990  0.8740939273581584  0.8742978061783202
  0.6238679593154318  0.6271092531478418  0.8749238052182613
  0.8755139382303738  0.6247035940221566  0.3748092886764829
  0.6249833240772349  0.8748195848786363  0.3762134130451840
  0.8755766171963669  0.3775956588269035  0.3744554069676432
  0.8774649655823948  0.3776860367366619  0.6236881676853530
  0.6236734782342052  0.3753014192230217  0.8776120583450380
  0.3756413801101231  0.6246711514505712  0.8734115195054106
  0.3722706322948887  0.8767068778758490  0.3769315707251285
  0.3755145691652835  0.8742162266497513  0.6238640271633376
  0.3762605864541240  0.8737186761183385  0.8737451880699358
  0.8760788377111358  0.6254696345217132  0.1258664622262519
  0.6264449048305952  0.6256497013570539  0.1239322511305220
  0.8750246233101171  0.3759506928154972  0.1260572836755122
  0.3733701893128325  0.8759694153653494  0.1241198564546661
  0.8747879131422670  0.1259841672157433  0.1238422034218308
  0.3743188533657510  0.1242432294289747  0.1257031116634721
  0.3737449830086698  0.1245743081556513  0.3756815621669639
  0.8769177298663524  0.1230946707465920  0.6268468624946352
  0.6230317402502294  0.1223741342948203  0.6250076602078206
  0.3753256119947628  0.1224936964849246  0.6226113973343870
  0.1260311793873573  0.1241181930711525  0.1249302876381500
  0.1282387368380569  0.1255673943625848  0.3750767748978160
  0.1233278550360926  0.3757404867754451  0.1243288249886281
  0.1231776816761009  0.3749490070038761  0.3754794064314352
  0.1218779382430862  0.6272134421576342  0.3750522728415647
  0.1241344671446294  0.6260841148237795  0.6255106453351857
  0.6247808670391209  0.1227505625575488  0.8764970804511218
  0.1235398875135937  0.1222121377481918  0.8765999702676690
  0.1247293215681172  0.3778397426498265  0.8756867319928988
  0.1249401568731753  0.6246530549960001  0.8735976776452162
  0.1267892792327473  0.8736634553645236  0.3748495240405900
  0.1258444231843373  0.8729207898511144  0.6248548065541599
  0.0002042976969359  0.0010732465814004  0.0002954471457375
  0.0011652240726745 -0.0009414518317988  0.7497567002116228
  0.0026640669767242  0.7495900352110305  0.7494217143366922
 -0.0002438557361747  0.7485959909219104 -0.0011476940558796
  0.7499529964206282  0.7479577436522652  0.0003652063575426
  0.7499268261412846  0.0012232742872227  0.7503545849272787
  0.0034805963214737  0.7489319554504607  0.4993640209427418
  0.0002211107881210  0.5009388839834251  0.4978984112535414
  0.0024203395735024  0.5003831713835699  0.7499610267988472
  0.0003531433894693  0.4992158529517686  0.0015800846783910
  0.5020121199931360  0.5019230522623495 -0.0017216327451914
  0.4990649260383290  0.7492597554468582 -0.0016296365114518
  0.4976724373573487 -0.0003009358998416  0.4999795926866867
  0.4987323411028686 -0.0006135127838218  0.7490289498953703
  0.4983807591589060 -0.0011066694819083  0.0001498145682971
 -0.0004128024299511  0.7478670377959951  0.2514967660305016
  0.7497431360473755 -0.0002667370093453  0.2497911436990758
 -0.0010365784483097  0.4988489030726402  0.2508422593037125
 -0.0001837511496610  0.2516944593796941  0.4983392003053604
  0.0021441707408250  0.2505088163201092  0.0023313106395531
  0.7510856213367511  0.2502962785135259  0.0000935865563014
  0.5003035343568552  0.2486255901079636 -0.0009655234419402
  0.2477998931304895  0.4997575834262059 -0.0018965728900525
  0.2505582312900745  0.0009503254390138  0.2508752798224100
  0.2511047865141594 -0.0016217500270135  0.4989150261010883
  0.2505214336592054  0.0000350479783996  0.0008566747884228
 
  0.00000000E+00  0.00000000E+00  0.00000000E+00
  0.00000000E+00  0.00000000E+00  0.00000000E+00
  0.00000000E+00  0.00000000E+00  0.00000000E+00
  0.00000000E+00  0.00000000E+00  0.00000000E+00
  0.00000000E+00  0.00000000E+00  0.00000000E+00
  0.00000000E+00  0.00000000E+00  0.00000000E+00
  0.00000000E+00  0.00000000E+00  0.00000000E+00
  0.00000000E+00  0.00000000E+00  0.00000000E+00
  0.00000000E+00  0.00000000E+00  0.00000000E+00
  0.00000000E+00  0.00000000E+00  0.00000000E+00
  0.00000000E+00  0.00000000E+00  0.00000000E+00
  0.00000000E+00  0.00000000E+00  0.00000000E+00
  0.00000000E+00  0.00000000E+00  0.00000000E+00
  0.00000000E+00  0.00000000E+00  0.00000000E+00
  0.00000000E+00  0.00000000E+00  0.00000000E+00
  0.00000000E+00  0.00000000E+00  0.00000000E+00
  0.00000000E+00  0.00000000E+00  0.00000000E+00
  0.00000000E+00  0.00000000E+00  0.00000000E+00
  0.00000000E+00  0.00000000E+00  0.00000000E+00
  0.00000000E+00  0.00000000E+00  0.00000000E+00
  0.00000000E+00  0.00000000E+00  0.00000000E+00
  0.00000000E+00  0.00000000E+00  0.00000000E+00
  0.00000000E+00  0.00000000E+00  0.00000000E+00
  0.00000000E+00  0.00000000E+00  0.00000000E+00
  0.00000000E+00  0.00000000E+00  0.00000000E+00
  0.00000000E+00  0.00000000E+00  0.00000000E+00
  0.00000000E+00  0.00000000E+00  0.00000000E+00
  0.00000000E+00  0.00000000E+00  0.00000000E+00
  0.00000000E+00  0.00000000E+00  0.00000000E+00
  0.00000000E+00  0.00000000E+00  0.00000000E+00
  0.00000000E+00  0.00000000E+00  0.00000000E+00
  0.00000000E+00  0.00000000E+00  0.00000000E+00
  0.00000000E+00  0.00000000E+00  0.00000000E+00
  0.00000000E+00  0.00000000E+00  0.00000000E+00
  0.00000000E+00  0.00000000E+00  0.00000000E+00
  0.00000000E+00  0.00000000E+00  0.00000000E+00
  0.00000000E+00  0.00000000E+00  0.00000000E+00
  0.00000000E+00  0.00000000E+00  0.00000000E+00
  0.00000000E+00  0.00000000E+00  0.00000000E+00
  0.00000000E+00  0.00000000E+00  0.00000000E+00
  0.00000000E+00  0.00000000E+00  0.00000000E+00
  0.00000000E+00  0.00000000E+00  0.00000000E+00
  0.00000000E+00  0.00000000E+00  0.00000000E+00
  0.00000000E+00  0.00000000E+00  0.00000000E+00
  0.00000000E+00  0.00000000E+00  0.00000000E+00
  0.00000000E+00  0.00000000E+00  0.00000000E+00
  0.00000000E+00  0.00000000E+00  0.00000000E+00
  0.00000000E+00  0.00000000E+00  0.00000000E+00
  0.00000000E+00  0.00000000E+00  0.00000000E+00
  0.00000000E+00  0.00000000E+00  0.00000000E+00
  0.00000000E+00  0.00000000E+00  0.00000000E+00
  0.00000000E+00  0.00000000E+00  0.00000000E+00
  0.00000000E+00  0.00000000E+00  0.00000000E+00
  0.00000000E+00  0.00000000E+00  0.00000000E+00
  0.00000000E+00  0.00000000E+00  0.00000000E+00
  0.00000000E+00  0.00000000E+00  0.00000000E+00
  0.00000000E+00  0.00000000E+00  0.00000000E+00
  0.00000000E+00  0.00000000E+00  0.00000000E+00
  0.00000000E+00  0.00000000E+00  0.00000000E+00
  0.00000000E+00  0.00000000E+00  0.00000000E+00
  0.00000000E+00  0.00000000E+00  0.00000000E+00
  0.00000000E+00  0.00000000E+00  0.00000000E+00
  0.00000000E+00  0.00000000E+00  0.00000000E+00
  0.00000000E+00  0.00000000E+00  0.00000000E+00
  0.00000000E+00  0.00000000E+00  0.00000000E+00
  0.00000000E+00  0.00000000E+00  0.00000000E+00
  0.00000000E+00  0.00000000E+00  0.00000000E+00
  0.00000000E+00  0.00000000E+00  0.00000000E+00
  0.00000000E+00  0.00000000E+00  0.00000000E+00
  0.00000000E+00  0.00000000E+00  0.00000000E+00
  0.00000000E+00  0.00000000E+00  0.00000000E+00
  0.00000000E+00  0.00000000E+00  0.00000000E+00
  0.00000000E+00  0.00000000E+00  0.00000000E+00
  0.00000000E+00  0.00000000E+00  0.00000000E+00
  0.00000000E+00  0.00000000E+00  0.00000000E+00
  0.00000000E+00  0.00000000E+00  0.00000000E+00
  0.00000000E+00  0.00000000E+00  0.00000000E+00
  0.00000000E+00  0.00000000E+00  0.00000000E+00
  0.00000000E+00  0.00000000E+00  0.00000000E+00
  0.00000000E+00  0.00000000E+00  0.00000000E+00
  0.00000000E+00  0.00000000E+00  0.00000000E+00
  0.00000000E+00  0.00000000E+00  0.00000000E+00
  0.00000000E+00  0.00000000E+00  0.00000000E+00
  0.00000000E+00  0.00000000E+00  0.00000000E+00
  0.00000000E+00  0.00000000E+00  0.00000000E+00
  0.00000000E+00  0.00000000E+00  0.00000000E+00
  0.00000000E+00  0.00000000E+00  0.00000000E+00
  0.00000000E+00  0.00000000E+00  0.00000000E+00
  0.00000000E+00  0.00000000E+00  0.00000000E+00
  0.00000000E+00  0.00000000E+00  0.00000000E+00
  0.00000000E+00  0.00000000E+00  0.00000000E+00
  0.00000000E+00  0.00000000E+00  0.00000000E+00
  0.00000000E+00  0.00000000E+00  0.00000000E+00
  0.00000000E+00  0.00000000E+00  0.00000000E+00
  0.00000000E+00  0.00000000E+00  0.00000000E+00
  0.00000000E+00  0.00000000E+00  0.00000000E+00
  0.00000000E+00  0.00000000E+00  0.00000000E+00
  0.00000000E+00  0.00000000E+00  0.00000000E+00
  0.00000000E+00  0.00000000E+00  0.00000000E+00
  0.00000000E+00  0.00000000E+00  0.00000000E+00
  0.00000000E+00  0.00000000E+00  0.00000000E+00
  0.00000000E+00  0.00000000E+00  0.00000000E+00
  0.00000000E+00  0.00000000E+00  0.00000000E+00
  0.00000000E+00  0.00000000E+00  0.00000000E+00
  0.00000000E+00  0.00000000E+00  0.00000000E+00
  0.00000000E+00  0.00000000E+00  0.00000000E+00
  0.00000000E+00  0.00000000E+00  0.00000000E+00
  0.00000000E+00  0.00000000E+00  0.00000000E+00
  0.00000000E+00  0.00000000E+00  0.00000000E+00
  0.00000000E+00  0.00000000E+00  0.00000000E+00
  0.00000000E+00  0.00000000E+00  0.00000000E+00
  0.00000000E+00  0.00000000E+00  0.00000000E+00
  0.00000000E+00  0.00000000E+00  0.00000000E+00
  0.00000000E+00  0.00000000E+00  0.00000000E+00
  0.00000000E+00  0.00000000E+00  0.00000000E+00
  0.00000000E+00  0.00000000E+00  0.00000000E+00
  0.00000000E+00  0.00000000E+00  0.00000000E+00
  0.00000000E+00  0.00000000E+00  0.00000000E+00
  0.00000000E+00  0.00000000E+00  0.00000000E+00
  0.00000000E+00  0.00000000E+00  0.00000000E+00
  0.00000000E+00  0.00000000E+00  0.00000000E+00
  0.00000000E+00  0.00000000E+00  0.00000000E+00
  0.00000000E+00  0.00000000E+00  0.00000000E+00
  0.00000000E+00  0.00000000E+00  0.00000000E+00
  0.00000000E+00  0.00000000E+00  0.00000000E+00
  0.00000000E+00  0.00000000E+00  0.00000000E+00
  0.00000000E+00  0.00000000E+00  0.00000000E+00
  0.00000000E+00  0.00000000E+00  0.00000000E+00
