#BCC aalvarado POSCAR generator         
    12.76000000000000     
     1.0013165636759220   -0.0001966744310139   -0.0001156326639440
    -0.0001966966251442    1.0010086968987488    0.0001851083310174
    -0.0001156376661481    0.0001850923771872    1.0009531649675838
   Ta   W 
    25   103
Direct
  0.4979839807456619  0.4981560338541417  0.5004999510743789
  0.4984465019092050  0.7515197381259838  0.5000799065285538
  0.4992051700023093  0.7507285449885072  0.7510490391556311
  0.7531838721901505  0.4999986819507058  0.2516454061427023
  0.4979592129349968  0.7519205108160193  0.2495328344904273
  0.2495078906325909  0.4998412413574025  0.4998423684790309
  0.7500968979682457  0.2514651251503277  0.7491580497312320
  0.4987240285164433  0.2506135418386888  0.7501616883974908
  0.2487362700903616  0.7502556868666844  0.5001342880953169
  0.2493798733900568  0.7505249054566810  0.7505369973625450
  0.6253096719143163  0.6246156305588263  0.1232745809828130
  0.8763615472476934  0.3743995070595285  0.1245061446616925
  0.6248164030886338  0.3742060954311159  0.1241723796933559
  0.6244838583328748  0.1264954917890521  0.1271537840884469
  0.3732726508572375  0.1256603197133256  0.1259235466808254
  0.6250319520128174  0.1234572366804420  0.6224834994175936
  0.8777041294330756  0.1244755659445998  0.8749498747110034
  0.7506086773524537 -0.0026394645544237  0.0003218867160646
  0.0001714879293416  0.5005635535086138  0.7500388697915823
  0.4996118736574400 -0.0017667450786072 -0.0015021159367349
  0.0002727628545843  0.2496551687102547  0.4995429665684252
  0.2496831893894428  0.5000772285958659  0.0003526046744298
  0.2494223421954776  0.0003977771944694  0.5000755303966431
  0.6285235612885056  0.6246144620163122  0.6263301279891385
  0.6276571853545968  0.6253151242423467  0.3749986183892624
  0.6248614584354578  0.3729090517498237  0.3747437119379116
  0.3741565820858371  0.3727222675540553  0.3736653328050134
  0.6256597076881457  0.3751179174294661  0.6245282095754644
  0.3736246485593824  0.3732091004251913  0.6257284009806123
  0.3732268658523506  0.6239037329656060  0.3719636908113553
  0.3746503122778262  0.6231086937015817  0.6273341185750069
  0.7513581854656017  0.7504588724991719  0.7508048620823614
  0.7526128274477457  0.7519415237487127  0.5005044175450409
  0.7519687578130897  0.4986832979492267  0.5006845515536031
  0.7517556235179049  0.4999230021418876  0.7505250377866316
  0.4995212782174185  0.4993576391844192  0.7507993124455423
  0.7526291271189314  0.7519463623067048  0.2497396855902658
  0.4975660296079517  0.4993120743442099  0.2503413122984125
  0.7511895850572121  0.2485904595044985  0.2525832992554945
  0.4983694786405887  0.2501670373555656  0.2524227917769778
  0.7513141535408389  0.2496229048447462  0.4994707085669634
  0.4992687601354259  0.2501660480289191  0.4996115843848821
  0.2488004023459666  0.2505382446748654  0.2504011545624367
  0.2492769295850596  0.2497722436801868  0.5000955730688315
  0.2490760004065330  0.4998009493115184  0.2495196104703551
  0.2501010686776129  0.2495052472363543  0.7501005698748049
  0.2492221015958260  0.4997715606624631  0.7504122532575640
  0.2488287681859937  0.7500730581288308  0.2494396573006533
  0.8761244644332978  0.8738798173085324  0.8742568053492026
  0.8752725842486977  0.8746397168090579  0.6244312693651204
  0.8748878893672896  0.6263039115214519  0.6247156523895923
  0.8747149039468909  0.6260632533544520  0.8754598341286804
  0.6261578802111918  0.6244242308805561  0.8756781878161259
  0.6274395729793679  0.8767298367577820  0.6249918562607125
  0.6260467272425375  0.8734448479772127  0.8742336987295577
  0.8753222758147083  0.8753885872480656  0.3750687692716904
  0.8769071615306547  0.6262765743839496  0.3757409423620097
  0.6271413570862533  0.8773457231200112  0.3751105328951519
  0.8757519085413875  0.3745702873675399  0.3748721620807697
  0.8750986039011556  0.3759943533722930  0.6240836581125601
  0.8752393119179077  0.3753757945086723  0.8762279940133171
  0.6246041708497343  0.3768484465484719  0.8762934189406685
  0.3743837126251526  0.3749650667282599  0.8751748080064016
  0.3752293694682703  0.6241539887337403  0.8767693526318692
  0.3741965002886614  0.8776307417979963  0.3731244582850708
  0.3750197443310420  0.8782637984681312  0.6260774894524419
  0.3736344975048868  0.8758108042665688  0.8761857364098828
  0.8766886787934037  0.8740712594552478  0.1259726519057524
  0.8766646141030329  0.6258792033296996  0.1242769979316549
  0.6260482035026647  0.8743527218857579  0.1256049036160197
  0.3747789261899042  0.3743407736651399  0.1254486584498859
  0.3739415193519162  0.6250944605876155  0.1243062470182919
  0.3722985282545381  0.8753667976164697  0.1247858269474697
  0.8761038558860169  0.1250077244694162  0.1257698990654202
  0.8747016394849232  0.1237021322084854  0.3744118499432512
  0.6253023799162771  0.1248995123250291  0.3752145161332613
  0.3752579316609330  0.1260664460249181  0.3742582998314594
  0.8752645948944230  0.1231805465729529  0.6245147894695733
  0.3746380488033285  0.1255046389268820  0.6248356234572674
  0.1250431447944717  0.1245617798570346  0.1248140464206119
  0.1245610436000908  0.1249258599011168  0.3734542085600834
  0.1242823393369492  0.3743913331673852  0.1254709436948375
  0.1250925989295776  0.3746595973708577  0.3734267400407486
  0.1249812084208595  0.1249445111112524  0.6263211342707099
  0.1253393391912275  0.3738168046457929  0.6256379360550860
  0.1243406265265409  0.6260588758474621  0.1255934620613633
  0.1228785054327381  0.6250235907019497  0.3728723246244929
  0.1224024526550502  0.6251906311403664  0.6249963499603610
  0.6253454131165614  0.1249328772033692  0.8745721874159085
  0.3723265240613400  0.1253180800993202  0.8752662276112251
  0.1248089509810614  0.1247950850251215  0.8754304622820329
  0.1252007858840830  0.3733907677114590  0.8754303642090040
  0.1237000213418197  0.6259183440806663  0.8765375845499350
  0.1241500112384116  0.8750446436219373  0.1248323612614607
  0.1225325741523886  0.8753028438426373  0.3730781041296788
  0.1217371742660297  0.8763278030905562  0.6259399828184483
  0.1238839008562834  0.8760872043780461  0.8764028144870166
  0.0011963947200318 -0.0010662671161207  0.0008242307881620
  0.0013148193940902 -0.0009347159256026  0.7494572892795773
  0.0000400231213172  0.7500359824753527  0.7502957675903380
  0.0002706260899519  0.7502942492044681  0.0005262711327385
  0.7518036058446065  0.7503778834260579 -0.0010970968177247
  0.7510385445559028 -0.0016552913256981  0.7492471813939097
 -0.0002152896044606 -0.0000105509992065  0.4998323331638336
 -0.0002597424807929  0.7502300913959522  0.4996751568928522
  0.7509696521570878 -0.0007187181403478  0.4989871260042377
  0.0005711640658943  0.4999315890623583  0.5005219863519571
  0.0015422095826306  0.5011470466136578 -0.0008768749384092
  0.7510782179102342  0.5013580619656448 -0.0022971553637424
  0.4979463744497730  0.5003134634955747 -0.0017023209434702
  0.4993105456441893  0.7503135171839397 -0.0006461607369902
  0.4994323146884969  0.0001650294960234  0.4994186004638939
  0.4989149599829339 -0.0003277503790031  0.7501568956396127
  0.0001661264881444 -0.0005127646980457  0.2499787532258190
  0.0006451325672886  0.7505346728791352  0.2496889768614045
  0.7516458878249760 -0.0006629620904336  0.2513654968094611
  0.0017074830761609  0.5010152219957904  0.2504787080408721
  0.4996537631091031 -0.0007782992412094  0.2513324720682068
  0.0015567935088755  0.2488277206152902  0.2508234486515754
  0.0015460680414015  0.2505925099461758  0.7490400213718568
  0.0023510191646144  0.2496234766307869  0.0004456055052005
  0.7509227518619817  0.2495484586125694 -0.0015774980909152
  0.4982480230067608  0.2506565689286219 -0.0020575830906965
  0.2485919800280456  0.2508213743982368 -0.0005397552967378
  0.2489062635915910  0.7497308384829883  0.0001855003235982
  0.2482290132315680 -0.0001986014712034  0.2506289153636871
  0.2493007838144329  0.0004496870730922  0.7497924775393425
  0.2489126751000221 -0.0005204051564050 -0.0005655686946220
 
  0.00000000E+00  0.00000000E+00  0.00000000E+00
  0.00000000E+00  0.00000000E+00  0.00000000E+00
  0.00000000E+00  0.00000000E+00  0.00000000E+00
  0.00000000E+00  0.00000000E+00  0.00000000E+00
  0.00000000E+00  0.00000000E+00  0.00000000E+00
  0.00000000E+00  0.00000000E+00  0.00000000E+00
  0.00000000E+00  0.00000000E+00  0.00000000E+00
  0.00000000E+00  0.00000000E+00  0.00000000E+00
  0.00000000E+00  0.00000000E+00  0.00000000E+00
  0.00000000E+00  0.00000000E+00  0.00000000E+00
  0.00000000E+00  0.00000000E+00  0.00000000E+00
  0.00000000E+00  0.00000000E+00  0.00000000E+00
  0.00000000E+00  0.00000000E+00  0.00000000E+00
  0.00000000E+00  0.00000000E+00  0.00000000E+00
  0.00000000E+00  0.00000000E+00  0.00000000E+00
  0.00000000E+00  0.00000000E+00  0.00000000E+00
  0.00000000E+00  0.00000000E+00  0.00000000E+00
  0.00000000E+00  0.00000000E+00  0.00000000E+00
  0.00000000E+00  0.00000000E+00  0.00000000E+00
  0.00000000E+00  0.00000000E+00  0.00000000E+00
  0.00000000E+00  0.00000000E+00  0.00000000E+00
  0.00000000E+00  0.00000000E+00  0.00000000E+00
  0.00000000E+00  0.00000000E+00  0.00000000E+00
  0.00000000E+00  0.00000000E+00  0.00000000E+00
  0.00000000E+00  0.00000000E+00  0.00000000E+00
  0.00000000E+00  0.00000000E+00  0.00000000E+00
  0.00000000E+00  0.00000000E+00  0.00000000E+00
  0.00000000E+00  0.00000000E+00  0.00000000E+00
  0.00000000E+00  0.00000000E+00  0.00000000E+00
  0.00000000E+00  0.00000000E+00  0.00000000E+00
  0.00000000E+00  0.00000000E+00  0.00000000E+00
  0.00000000E+00  0.00000000E+00  0.00000000E+00
  0.00000000E+00  0.00000000E+00  0.00000000E+00
  0.00000000E+00  0.00000000E+00  0.00000000E+00
  0.00000000E+00  0.00000000E+00  0.00000000E+00
  0.00000000E+00  0.00000000E+00  0.00000000E+00
  0.00000000E+00  0.00000000E+00  0.00000000E+00
  0.00000000E+00  0.00000000E+00  0.00000000E+00
  0.00000000E+00  0.00000000E+00  0.00000000E+00
  0.00000000E+00  0.00000000E+00  0.00000000E+00
  0.00000000E+00  0.00000000E+00  0.00000000E+00
  0.00000000E+00  0.00000000E+00  0.00000000E+00
  0.00000000E+00  0.00000000E+00  0.00000000E+00
  0.00000000E+00  0.00000000E+00  0.00000000E+00
  0.00000000E+00  0.00000000E+00  0.00000000E+00
  0.00000000E+00  0.00000000E+00  0.00000000E+00
  0.00000000E+00  0.00000000E+00  0.00000000E+00
  0.00000000E+00  0.00000000E+00  0.00000000E+00
  0.00000000E+00  0.00000000E+00  0.00000000E+00
  0.00000000E+00  0.00000000E+00  0.00000000E+00
  0.00000000E+00  0.00000000E+00  0.00000000E+00
  0.00000000E+00  0.00000000E+00  0.00000000E+00
  0.00000000E+00  0.00000000E+00  0.00000000E+00
  0.00000000E+00  0.00000000E+00  0.00000000E+00
  0.00000000E+00  0.00000000E+00  0.00000000E+00
  0.00000000E+00  0.00000000E+00  0.00000000E+00
  0.00000000E+00  0.00000000E+00  0.00000000E+00
  0.00000000E+00  0.00000000E+00  0.00000000E+00
  0.00000000E+00  0.00000000E+00  0.00000000E+00
  0.00000000E+00  0.00000000E+00  0.00000000E+00
  0.00000000E+00  0.00000000E+00  0.00000000E+00
  0.00000000E+00  0.00000000E+00  0.00000000E+00
  0.00000000E+00  0.00000000E+00  0.00000000E+00
  0.00000000E+00  0.00000000E+00  0.00000000E+00
  0.00000000E+00  0.00000000E+00  0.00000000E+00
  0.00000000E+00  0.00000000E+00  0.00000000E+00
  0.00000000E+00  0.00000000E+00  0.00000000E+00
  0.00000000E+00  0.00000000E+00  0.00000000E+00
  0.00000000E+00  0.00000000E+00  0.00000000E+00
  0.00000000E+00  0.00000000E+00  0.00000000E+00
  0.00000000E+00  0.00000000E+00  0.00000000E+00
  0.00000000E+00  0.00000000E+00  0.00000000E+00
  0.00000000E+00  0.00000000E+00  0.00000000E+00
  0.00000000E+00  0.00000000E+00  0.00000000E+00
  0.00000000E+00  0.00000000E+00  0.00000000E+00
  0.00000000E+00  0.00000000E+00  0.00000000E+00
  0.00000000E+00  0.00000000E+00  0.00000000E+00
  0.00000000E+00  0.00000000E+00  0.00000000E+00
  0.00000000E+00  0.00000000E+00  0.00000000E+00
  0.00000000E+00  0.00000000E+00  0.00000000E+00
  0.00000000E+00  0.00000000E+00  0.00000000E+00
  0.00000000E+00  0.00000000E+00  0.00000000E+00
  0.00000000E+00  0.00000000E+00  0.00000000E+00
  0.00000000E+00  0.00000000E+00  0.00000000E+00
  0.00000000E+00  0.00000000E+00  0.00000000E+00
  0.00000000E+00  0.00000000E+00  0.00000000E+00
  0.00000000E+00  0.00000000E+00  0.00000000E+00
  0.00000000E+00  0.00000000E+00  0.00000000E+00
  0.00000000E+00  0.00000000E+00  0.00000000E+00
  0.00000000E+00  0.00000000E+00  0.00000000E+00
  0.00000000E+00  0.00000000E+00  0.00000000E+00
  0.00000000E+00  0.00000000E+00  0.00000000E+00
  0.00000000E+00  0.00000000E+00  0.00000000E+00
  0.00000000E+00  0.00000000E+00  0.00000000E+00
  0.00000000E+00  0.00000000E+00  0.00000000E+00
  0.00000000E+00  0.00000000E+00  0.00000000E+00
  0.00000000E+00  0.00000000E+00  0.00000000E+00
  0.00000000E+00  0.00000000E+00  0.00000000E+00
  0.00000000E+00  0.00000000E+00  0.00000000E+00
  0.00000000E+00  0.00000000E+00  0.00000000E+00
  0.00000000E+00  0.00000000E+00  0.00000000E+00
  0.00000000E+00  0.00000000E+00  0.00000000E+00
  0.00000000E+00  0.00000000E+00  0.00000000E+00
  0.00000000E+00  0.00000000E+00  0.00000000E+00
  0.00000000E+00  0.00000000E+00  0.00000000E+00
  0.00000000E+00  0.00000000E+00  0.00000000E+00
  0.00000000E+00  0.00000000E+00  0.00000000E+00
  0.00000000E+00  0.00000000E+00  0.00000000E+00
  0.00000000E+00  0.00000000E+00  0.00000000E+00
  0.00000000E+00  0.00000000E+00  0.00000000E+00
  0.00000000E+00  0.00000000E+00  0.00000000E+00
  0.00000000E+00  0.00000000E+00  0.00000000E+00
  0.00000000E+00  0.00000000E+00  0.00000000E+00
  0.00000000E+00  0.00000000E+00  0.00000000E+00
  0.00000000E+00  0.00000000E+00  0.00000000E+00
  0.00000000E+00  0.00000000E+00  0.00000000E+00
  0.00000000E+00  0.00000000E+00  0.00000000E+00
  0.00000000E+00  0.00000000E+00  0.00000000E+00
  0.00000000E+00  0.00000000E+00  0.00000000E+00
  0.00000000E+00  0.00000000E+00  0.00000000E+00
  0.00000000E+00  0.00000000E+00  0.00000000E+00
  0.00000000E+00  0.00000000E+00  0.00000000E+00
  0.00000000E+00  0.00000000E+00  0.00000000E+00
  0.00000000E+00  0.00000000E+00  0.00000000E+00
  0.00000000E+00  0.00000000E+00  0.00000000E+00
  0.00000000E+00  0.00000000E+00  0.00000000E+00
  0.00000000E+00  0.00000000E+00  0.00000000E+00
  0.00000000E+00  0.00000000E+00  0.00000000E+00
