#generated using str2pos                
    1.000000000000000     
    12.7991219802350127    0.0017722953876753   -0.0015488790456481
     0.0017724998767697   12.7961324681905779   -0.0014859327995835
    -0.0015495642710560   -0.0014860455504674   12.7995854541007095
   Ta   W 
    32    96
Direct
  0.3750354583656738  0.1251437257019036  0.1248022552981445
  0.7504566361652493  0.2503492695751394  0.2498466219772624
 -0.0004544639652405  0.2497002500493038  0.2498153607662389
  0.2502665213125525  0.5001094932623142  0.2497648267081198
  0.4997221064490721  0.4998399130870438  0.2499829102337477
  0.7497901894681445  0.4996091027159269  0.2495694359871239
  0.2486011181302618  0.7477467564616093  0.2500566005289696
  0.7495268295677282  0.7488665948664984  0.2504540209155424
  0.3760594321708794  0.8761122131582743  0.1245402049275802
  0.0002812227645408  0.0012011659621596  0.2505644220968218
  0.8745852259453151  0.8748121240660237  0.1226599374654462
  0.3754702050348380  0.1247947344172420  0.3745683215292738
  0.0001294881505674  0.2504581495329127  0.5002596021042227
  0.0004745695045865  0.5000726459473540  0.5002998613331875
  0.7502110164296607  0.7501298413479498  0.4980601166914108
  0.0006603176071074  0.7487738451722105  0.4992146851701815
  0.3761068134326127  0.8760677989141433  0.3752632537441873
  0.3759220188706892  0.1262869692066010  0.6240687818009922
  0.6250475478009065  0.1249027392828272  0.6253787120916242
  0.0003594330273922  0.2509527829302374  0.7504338487721833
  0.3750807584615500  0.3750051492556392  0.6254543569768305
  0.6243488738203968  0.3749201167509384  0.6256300199515263
  0.2499358603190758  0.7500314580936626  0.7484427164597820
  0.6240453296474000  0.6243429339634575  0.6263582016010288
  0.2500769089592875 -0.0000923747407586  0.7500826432781699
  0.8746389949570684  0.8766379103928365  0.6272581772902174
  0.6251597616615849  0.1249688137397449  0.8751485433948351
  0.6250559840577355  0.3746492171428226  0.8750977275316181
  0.3755634878390244  0.6238403527617712  0.8754452489253221
  0.6248745438853168  0.6251529004705253  0.8748432038935957
  0.1228559098920411  0.8748658103121041  0.8766231525045809
  0.8745037282564254  0.8748420051204128  0.8749156433993533
  0.2485786559207781  0.2520537792008720  0.2492647891473181
  0.1265229926863924  0.1257425943883300  0.1234299162022637
  0.5017216440363654  0.2517171228314431  0.2493627010587628
  0.6243002846780402  0.1242342577843538  0.1240040180735185
  0.8743612596434192  0.1245673562762838  0.1228550734235099
  0.1251615985481939  0.3750243931746616  0.1228708090064740
  0.3745569969991112  0.3733136153950327  0.1233984459655088
  0.6242716311538463  0.3740087124252137  0.1229319008811002
  0.0001233731221226  0.4998042105581902  0.2495757036182722
  0.8761655680961108  0.3758002529616014  0.1222321852018294
  0.1232750922996950  0.6241017674859775  0.1232633141759863
  0.5012774870569078  0.7483217291431827  0.2498946069462900
  0.3749984241526099  0.6254628711269248  0.1226074182261924
  0.6247159492949264  0.6258693882799301  0.1227040596813779
  0.0005133449133575  0.7498104992130827  0.2502999435671515
  0.8765896712012035  0.6247213279688417  0.1227779162568304
  0.2470601740872893 -0.0000212845393372  0.2499598687548800
  0.1250356429753798  0.8747916694963774  0.1237166741971612
  0.5034862400118930  0.0000926585795477  0.2495393217087694
  0.7504389604407931  0.0010347550813796  0.2505133848801299
  0.6243205672163556  0.8758063245858424  0.1242466339083679
  0.2478525611557714  0.2510681752887853  0.4992218959895376
  0.1272125451719726  0.1245175808567545  0.3753812540810896
  0.5007345306950842  0.2507432581704250  0.4974125998432743
  0.7517353550605322  0.2497281786733955  0.4982036391184196
  0.6244909377375897  0.1240909095554652  0.3754511888660561
  0.8736111396487968  0.1241313535632132  0.3762166749457177
  0.2488193084528171  0.5003902188731146  0.4991107583383702
  0.1267503901595536  0.3749930019370036  0.3744808509960519
  0.4988374637189760  0.5010197981926504  0.4974801095489739
  0.3752030448957030  0.3735566616500056  0.3763344065759868
  0.7518183783357134  0.4997961408371174  0.4986995393548642
  0.6240648459048046  0.3738198834589955  0.3768009733850159
  0.8744185189208536  0.3754054811206763  0.3754618543291584
  0.2491962142866545  0.7490823332224221  0.5004001914962108
  0.1253219534907233  0.6247075850728953  0.3746221060352645
  0.5000445715937699  0.7500219095042463  0.5000358692858642
  0.3753235070746571  0.6257248928814101  0.3771841430688015
  0.6233812636971842  0.6251409347103897  0.3763944622315333
  0.8760339903880452  0.6239798011632774  0.3736485872707058
  0.2479641371655685 -0.0004913533419410  0.5011058416423065
  0.1263785996030844  0.8757052457271440  0.3755193768504445
  0.5018853339779186 -0.0016954298335282  0.4999978349652560
  0.7502782875424504  0.0001454435349626  0.4987933739827187
  0.6231662030402463  0.8765627252225839  0.3746909515888648
  0.0003363815132664  0.0005468129760967  0.4988762673511322
  0.8748105360254652  0.8766386551938217  0.3748656291844231
  0.2475346701308433  0.2501186515244828  0.7518326042366203
  0.1257151784507270  0.1247496417642343  0.6247529698899505
  0.4980655626323768  0.2494966700064022  0.7522292942475711
  0.7538775932535161  0.2501610289337875  0.7504968346521560
  0.8736608813675650  0.1238209044613951  0.6255095901209630
  0.2476289041154357  0.5001607563674959  0.7502063704485062
  0.1274104916549739  0.3758133004414337  0.6264074392232647
  0.4979741809662933  0.5003288360234458  0.7503896396736331
  0.7535783486988472  0.4997526376149031  0.7506371558809559
  0.0000808161315921  0.4992741271035204  0.7506386253466888
  0.8733075524896166  0.3755393161661026  0.6266325835945697
  0.1258855998660622  0.6241636500566192  0.6259311316076035
  0.4985486416278523  0.7520993168013733  0.7494522051055035
  0.3755204575829932  0.6239471226447674  0.6253432544635016
  0.7496747291242271  0.7498957967286249  0.7500201000221700
  0.0009831619474679  0.7474586619762640  0.7495484619145560
  0.8744892137038901  0.6245285220762600  0.6279071349272062
  0.1241043676787107  0.8754140021419636  0.6246648557851895
  0.4991525297241082 -0.0024897163625730  0.7510247326121018
  0.3763287558460838  0.8749316219141903  0.6235415949895345
  0.7498287123115580  0.0003674211143416  0.7501983893661478
  0.6245801006143334  0.8755867786835081  0.6255997430729971
  0.0007876423767290  0.0029357787901942  0.7495727705339655
  0.2491002466800496  0.2512426173773720 -0.0004088935310976
  0.1248284566303976  0.1255706136356412  0.8764305518376776
  0.4989560448687856  0.2504880787397513  0.0013383599476390
  0.3756700859056797  0.1259346773250873  0.8757655607367307
  0.7516869731948393  0.2501792653702410  0.0018015334364499
  0.0006996780562212  0.2512625085465894 -0.0003106347097914
  0.8742081244872537  0.1248605838727898  0.8754856780655474
  0.2483126181222993  0.4984531936973012  0.0007929236718763
  0.1254870373095025  0.3753937715631284  0.8760979144521438
  0.4989833771090441  0.4992146566938532  0.0028017559574684
  0.3746146481689159  0.3751010801098649  0.8748250438190509
  0.7523112777299276  0.4995794189248693  0.0011551404626539
  0.0002226181321093  0.4998987617661123 -0.0004389992292599
  0.8750374592884071  0.3758211616294623  0.8756989120238151
  0.2491305340510653  0.7487073466762557  0.0006167198850539
  0.1242354450917032  0.6236640147848453  0.8758287217138402
  0.5007628062423307  0.7507126166500420  0.0005187257755285
  0.7494544173634737  0.7490302155552312  0.0010038744828436
  0.0002792659709303  0.7471929242833246  0.0005287417055607
  0.8750485022214947  0.6245236084793379  0.8754829185106973
  0.2492894135547904  0.0016799702178374 -0.0010047925525194
  0.5009455267206065 -0.0004830720221420 -0.0006747932700652
  0.3759441666823614  0.8744410931860015  0.8762189447820550
  0.7491855173398521  0.0009577843136837  0.0007159499152101
  0.6250130158714540  0.8754186889761684  0.8751924326283759
  0.0003372651292638  0.0024169841246680  0.0012577472102989
 
  0.00000000E+00  0.00000000E+00  0.00000000E+00
  0.00000000E+00  0.00000000E+00  0.00000000E+00
  0.00000000E+00  0.00000000E+00  0.00000000E+00
  0.00000000E+00  0.00000000E+00  0.00000000E+00
  0.00000000E+00  0.00000000E+00  0.00000000E+00
  0.00000000E+00  0.00000000E+00  0.00000000E+00
  0.00000000E+00  0.00000000E+00  0.00000000E+00
  0.00000000E+00  0.00000000E+00  0.00000000E+00
  0.00000000E+00  0.00000000E+00  0.00000000E+00
  0.00000000E+00  0.00000000E+00  0.00000000E+00
  0.00000000E+00  0.00000000E+00  0.00000000E+00
  0.00000000E+00  0.00000000E+00  0.00000000E+00
  0.00000000E+00  0.00000000E+00  0.00000000E+00
  0.00000000E+00  0.00000000E+00  0.00000000E+00
  0.00000000E+00  0.00000000E+00  0.00000000E+00
  0.00000000E+00  0.00000000E+00  0.00000000E+00
  0.00000000E+00  0.00000000E+00  0.00000000E+00
  0.00000000E+00  0.00000000E+00  0.00000000E+00
  0.00000000E+00  0.00000000E+00  0.00000000E+00
  0.00000000E+00  0.00000000E+00  0.00000000E+00
  0.00000000E+00  0.00000000E+00  0.00000000E+00
  0.00000000E+00  0.00000000E+00  0.00000000E+00
  0.00000000E+00  0.00000000E+00  0.00000000E+00
  0.00000000E+00  0.00000000E+00  0.00000000E+00
  0.00000000E+00  0.00000000E+00  0.00000000E+00
  0.00000000E+00  0.00000000E+00  0.00000000E+00
  0.00000000E+00  0.00000000E+00  0.00000000E+00
  0.00000000E+00  0.00000000E+00  0.00000000E+00
  0.00000000E+00  0.00000000E+00  0.00000000E+00
  0.00000000E+00  0.00000000E+00  0.00000000E+00
  0.00000000E+00  0.00000000E+00  0.00000000E+00
  0.00000000E+00  0.00000000E+00  0.00000000E+00
  0.00000000E+00  0.00000000E+00  0.00000000E+00
  0.00000000E+00  0.00000000E+00  0.00000000E+00
  0.00000000E+00  0.00000000E+00  0.00000000E+00
  0.00000000E+00  0.00000000E+00  0.00000000E+00
  0.00000000E+00  0.00000000E+00  0.00000000E+00
  0.00000000E+00  0.00000000E+00  0.00000000E+00
  0.00000000E+00  0.00000000E+00  0.00000000E+00
  0.00000000E+00  0.00000000E+00  0.00000000E+00
  0.00000000E+00  0.00000000E+00  0.00000000E+00
  0.00000000E+00  0.00000000E+00  0.00000000E+00
  0.00000000E+00  0.00000000E+00  0.00000000E+00
  0.00000000E+00  0.00000000E+00  0.00000000E+00
  0.00000000E+00  0.00000000E+00  0.00000000E+00
  0.00000000E+00  0.00000000E+00  0.00000000E+00
  0.00000000E+00  0.00000000E+00  0.00000000E+00
  0.00000000E+00  0.00000000E+00  0.00000000E+00
  0.00000000E+00  0.00000000E+00  0.00000000E+00
  0.00000000E+00  0.00000000E+00  0.00000000E+00
  0.00000000E+00  0.00000000E+00  0.00000000E+00
  0.00000000E+00  0.00000000E+00  0.00000000E+00
  0.00000000E+00  0.00000000E+00  0.00000000E+00
  0.00000000E+00  0.00000000E+00  0.00000000E+00
  0.00000000E+00  0.00000000E+00  0.00000000E+00
  0.00000000E+00  0.00000000E+00  0.00000000E+00
  0.00000000E+00  0.00000000E+00  0.00000000E+00
  0.00000000E+00  0.00000000E+00  0.00000000E+00
  0.00000000E+00  0.00000000E+00  0.00000000E+00
  0.00000000E+00  0.00000000E+00  0.00000000E+00
  0.00000000E+00  0.00000000E+00  0.00000000E+00
  0.00000000E+00  0.00000000E+00  0.00000000E+00
  0.00000000E+00  0.00000000E+00  0.00000000E+00
  0.00000000E+00  0.00000000E+00  0.00000000E+00
  0.00000000E+00  0.00000000E+00  0.00000000E+00
  0.00000000E+00  0.00000000E+00  0.00000000E+00
  0.00000000E+00  0.00000000E+00  0.00000000E+00
  0.00000000E+00  0.00000000E+00  0.00000000E+00
  0.00000000E+00  0.00000000E+00  0.00000000E+00
  0.00000000E+00  0.00000000E+00  0.00000000E+00
  0.00000000E+00  0.00000000E+00  0.00000000E+00
  0.00000000E+00  0.00000000E+00  0.00000000E+00
  0.00000000E+00  0.00000000E+00  0.00000000E+00
  0.00000000E+00  0.00000000E+00  0.00000000E+00
  0.00000000E+00  0.00000000E+00  0.00000000E+00
  0.00000000E+00  0.00000000E+00  0.00000000E+00
  0.00000000E+00  0.00000000E+00  0.00000000E+00
  0.00000000E+00  0.00000000E+00  0.00000000E+00
  0.00000000E+00  0.00000000E+00  0.00000000E+00
  0.00000000E+00  0.00000000E+00  0.00000000E+00
  0.00000000E+00  0.00000000E+00  0.00000000E+00
  0.00000000E+00  0.00000000E+00  0.00000000E+00
  0.00000000E+00  0.00000000E+00  0.00000000E+00
  0.00000000E+00  0.00000000E+00  0.00000000E+00
  0.00000000E+00  0.00000000E+00  0.00000000E+00
  0.00000000E+00  0.00000000E+00  0.00000000E+00
  0.00000000E+00  0.00000000E+00  0.00000000E+00
  0.00000000E+00  0.00000000E+00  0.00000000E+00
  0.00000000E+00  0.00000000E+00  0.00000000E+00
  0.00000000E+00  0.00000000E+00  0.00000000E+00
  0.00000000E+00  0.00000000E+00  0.00000000E+00
  0.00000000E+00  0.00000000E+00  0.00000000E+00
  0.00000000E+00  0.00000000E+00  0.00000000E+00
  0.00000000E+00  0.00000000E+00  0.00000000E+00
  0.00000000E+00  0.00000000E+00  0.00000000E+00
  0.00000000E+00  0.00000000E+00  0.00000000E+00
  0.00000000E+00  0.00000000E+00  0.00000000E+00
  0.00000000E+00  0.00000000E+00  0.00000000E+00
  0.00000000E+00  0.00000000E+00  0.00000000E+00
  0.00000000E+00  0.00000000E+00  0.00000000E+00
  0.00000000E+00  0.00000000E+00  0.00000000E+00
  0.00000000E+00  0.00000000E+00  0.00000000E+00
  0.00000000E+00  0.00000000E+00  0.00000000E+00
  0.00000000E+00  0.00000000E+00  0.00000000E+00
  0.00000000E+00  0.00000000E+00  0.00000000E+00
  0.00000000E+00  0.00000000E+00  0.00000000E+00
  0.00000000E+00  0.00000000E+00  0.00000000E+00
  0.00000000E+00  0.00000000E+00  0.00000000E+00
  0.00000000E+00  0.00000000E+00  0.00000000E+00
  0.00000000E+00  0.00000000E+00  0.00000000E+00
  0.00000000E+00  0.00000000E+00  0.00000000E+00
  0.00000000E+00  0.00000000E+00  0.00000000E+00
  0.00000000E+00  0.00000000E+00  0.00000000E+00
  0.00000000E+00  0.00000000E+00  0.00000000E+00
  0.00000000E+00  0.00000000E+00  0.00000000E+00
  0.00000000E+00  0.00000000E+00  0.00000000E+00
  0.00000000E+00  0.00000000E+00  0.00000000E+00
  0.00000000E+00  0.00000000E+00  0.00000000E+00
  0.00000000E+00  0.00000000E+00  0.00000000E+00
  0.00000000E+00  0.00000000E+00  0.00000000E+00
  0.00000000E+00  0.00000000E+00  0.00000000E+00
  0.00000000E+00  0.00000000E+00  0.00000000E+00
  0.00000000E+00  0.00000000E+00  0.00000000E+00
  0.00000000E+00  0.00000000E+00  0.00000000E+00
  0.00000000E+00  0.00000000E+00  0.00000000E+00
  0.00000000E+00  0.00000000E+00  0.00000000E+00
  0.00000000E+00  0.00000000E+00  0.00000000E+00
  0.00000000E+00  0.00000000E+00  0.00000000E+00
