#generated using str2pos                
    1.000000000000000     
    13.1002671021854855   -0.0034137016972271    0.0086722294541325
    -0.0034126253951401   13.1171087308740368   -0.0062818049705270
     0.0086660299350885   -0.0062793256944306   13.1115804888785839
   Ta   W 
   102    26
Direct
  0.2505841638330097  0.2512581343799702  0.2472062650051211
  0.1236972070505302  0.1218238019949005  0.1218537701367215
  0.4979944323559911  0.2515709772437159  0.2485505610239310
  0.3751472125047374  0.1252216393688752  0.1239074251979028
  0.7514438520233766  0.2488413763497189  0.2503454538169770
  0.6245034844969196  0.1249969661901208  0.1231696753405668
 -0.0003770486128722  0.2484841780148641  0.2491885704757832
  0.8769829010133147  0.1221654964407618  0.1227060342131716
  0.2494309662515392  0.5009570555441466  0.2511002375379419
  0.1236688511217807  0.3757487324858635  0.1255719709092966
  0.4974671413124916  0.4998079287271631  0.2481894099683584
  0.7501012373226323  0.4988543151205039  0.2502615098552941
  0.6260730922132690  0.3760584057178549  0.1249868051043979
  0.0019808264382674  0.5014311006079895  0.2524631251383062
  0.8752132165979456  0.3751533042389634  0.1240984159764347
  0.2490868383257684  0.7506810000923614  0.2492753966919707
  0.1236918194081374  0.6267520770566286  0.1213648560943188
  0.4970536011136418  0.7522379716781566  0.2468514628146144
  0.3746970190636400  0.6244927739876528  0.1258329817972560
  0.6277675464034024  0.6281322984317943  0.1237827858076358
  0.0034246696422066  0.7488725761250283  0.2542359744192472
  0.8738877418678392  0.6289247585410808  0.1227325401651507
  0.2507621971293940 -0.0027340804308978  0.2483980902545894
  0.1208145309568912  0.8742937046704828  0.1210079009611505
  0.4979153081418031 -0.0020324746168003  0.2481392066626757
  0.7507939475822296  0.0014264480607731  0.2483762755080197
  0.6297889470662605  0.8717612487769324  0.1253648113294704
  0.0003790546146819 -0.0008055354758926  0.2504729825992437
  0.8752125537372196  0.8718321631061564  0.1218901822965348
  0.1240183893835204  0.1258323979864288  0.3796909539040241
  0.5028923730542847  0.2518346581710109  0.5012576133108156
  0.3723064830249225  0.1271642793238056  0.3778583653620329
  0.7473093092774288  0.2529524207320615  0.5016166654411782
  0.6259360085177973  0.1232351255475620  0.3768400555968053
  0.8769740205782059  0.1228182815154875  0.3803195194303901
  0.2497385216558805  0.5033683158180144  0.5019324423683688
  0.1258022955310139  0.3706942087068142  0.3794955979455844
  0.4993873322956056  0.4994463695618124  0.5044651676303782
  0.3728056798136393  0.3745113571212018  0.3790965471738508
  0.7487087314345525  0.4988978761329107  0.5027518129490810
  0.6234933528520678  0.3764774585026607  0.3741953422749079
  0.0019637701900352  0.5025451374168430  0.4995139859195029
  0.8771121272359501  0.3729252720022699  0.3774532679253229
  0.3764081291522938  0.6277710726241290  0.3772245310124949
  0.7518337034521241  0.7489456708436414  0.5020735107934524
  0.6236627827731294  0.6283044224176312  0.3742321213695876
  0.0004963701365784  0.7470110070127792  0.4970150621242825
  0.8716838060989949  0.6264101245561475  0.3729173630395541
  0.2489927337492975  0.0013076921178555  0.5037874437062916
  0.1252062580754030  0.8769289083299733  0.3789433496974258
  0.4986789965815828  0.0021970079957102  0.5007577326729471
  0.3744479075068597  0.8723365960966878  0.3798479771149864
  0.6263329025621458  0.8739851751426148  0.3754427167361948
  0.8735671852375410  0.8769052099552994  0.3761322703375645
  0.3741693852071591  0.1290715963712765  0.6272828500493453
  0.6262151963567605  0.1253797996356427  0.6271647443086392
  0.0010351073802146  0.2469524183918286  0.7520788154185020
  0.8744252037991057  0.1243881617232952  0.6227459655847137
  0.2512143318659916  0.5028455650220722  0.7512835521120179
  0.1273534697176753  0.3711604713179585  0.6238656441069969
  0.4995356605585056  0.5018211251032630  0.7499055798581056
  0.3718506667571866  0.3704594858681755  0.6271494309801074
  0.7471195337199976  0.4979698890194279  0.7494896607799413
  0.0017189772851260  0.4959076258479185  0.7513299757275042
  0.8762980247047835  0.3711335416726924  0.6254895800666508
  0.2554667805671141  0.7491305972585406  0.7525601495649313
  0.1247789943412731  0.6280569132060293  0.6281739984406006
  0.4979314380731967  0.7505744437334473  0.7535298247546889
  0.7471161618838965  0.7528909102816175  0.7494814199294869
  0.6233973535612122  0.6278280988907557  0.6241715613571719
  0.8767321186903205  0.6261613158096575  0.6286810503383078
  0.2500400401307033 -0.0020994254182634  0.7504093101416558
  0.1240660798311605  0.8732941909609453  0.6255676319381207
  0.4998920172975437 -0.0035074176374231  0.7521282178060232
  0.3751373068053692  0.8737862744186938  0.6217107091597168
  0.7501265758921994 -0.0007445641145062  0.7536042910855921
  0.6247165280821041  0.8758784057778563  0.6212259954409811
 -0.0000471652297065  0.0041682257555652  0.7497544570219071
  0.8770791112278651  0.8772661245830761  0.6244847800144708
  0.2497931221247435  0.2527545663517331  0.0005606057349172
  0.1272474172416966  0.1229041810046326  0.8753754144854616
  0.5001928951639469  0.2533702081569981 -0.0002649018166251
  0.3750113360537084  0.1295525935503203  0.8706131511441551
  0.7503678851327708  0.2490981533602921 -0.0037411788824746
  0.6228915603764247  0.1284580188052637  0.8708930107178744
 -0.0000883611358297  0.2501463766697899 -0.0041889745421325
  0.2511798003268640  0.4992374262796087 -0.0024940277202656
  0.4984199149224827  0.4998127915764562 -0.0026974510121045
  0.3753482072756139  0.3714389580355097  0.8695718802359084
  0.7486310867805969  0.4973173375351262 -0.0030423405973180
  0.0015404294651500  0.4966345938689936 -0.0024309053678485
  0.8730298191512522  0.3735484209901521  0.8721559344024524
  0.2555876721322138  0.7509504050256949 -0.0017334485532559
  0.1211623259471411  0.6287464581342981  0.8754912828640115
  0.4970205831840541  0.7523854564874521 -0.0028596248736408
  0.6277216192365365  0.6262542560428180  0.8774226974958533
  0.8758453349109339  0.6285863935641307  0.8764684136412993
  0.2545270732802372 -0.0038878859110600 -0.0012879721774337
  0.1200253221216051  0.8735413727905434  0.8757183377062551
  0.4993856742907513 -0.0039885186838786 -0.0027786294089009
  0.7489693123445695  0.0015855568467055 -0.0046337534533204
  0.8787108232290728  0.8721541245585062  0.8770598109558851
  0.3748601247278956  0.3760092361273584  0.1240440043531845
  0.7505381618427185  0.7506882135862799  0.2504398250080707
  0.3751624934998467  0.8745601673885104  0.1257475794497910
  0.2491937403773626  0.2486455191490217  0.5021218229111121
  0.0002490071613078  0.2485850420928332  0.5030310249827104
  0.2489979552067015  0.7482724198560174  0.5013273569966505
  0.1272845133053930  0.6261660202673248  0.3767810172545689
  0.4992152594176690  0.7490915565566392  0.5017563797351358
  0.7498368829323729  0.0000700632772212  0.5011529586347450
  0.0019180674319459 -0.0000329157666475  0.5024179493863654
  0.2469966106176055  0.2493334623818740  0.7508212252093327
  0.1250329150389062  0.1260603318044060  0.6247152081752239
  0.5021009772638914  0.2525192763127645  0.7493316339136025
  0.7496150164059411  0.2503545648093569  0.7501326388691879
  0.6238964267755899  0.3735430244894598  0.6272521037718604
  0.3750772178406083  0.6267952607729916  0.6231276291204855
  0.0002785096801183  0.7507472679134327  0.7487048542939740
  0.8749976063516237  0.1239623374807919  0.8733300563007481
  0.1271459790852615  0.3735330323892422  0.8724182637592436
  0.6241291630084929  0.3736246307195360  0.8723690840390532
  0.3752813815043285  0.6233562219096690  0.8751168492222016
  0.7479874804838500  0.7516239254497997 -0.0024892601396715
  0.0004994244843606  0.7491907928418644  0.0007972366110561
  0.3746474486722261  0.8759658152324673  0.8732015309900637
  0.6274750286282912  0.8743585995321956  0.8757594077470410
 -0.0012536249545084  0.0015867268457321 -0.0020410004997796
 
  0.00000000E+00  0.00000000E+00  0.00000000E+00
  0.00000000E+00  0.00000000E+00  0.00000000E+00
  0.00000000E+00  0.00000000E+00  0.00000000E+00
  0.00000000E+00  0.00000000E+00  0.00000000E+00
  0.00000000E+00  0.00000000E+00  0.00000000E+00
  0.00000000E+00  0.00000000E+00  0.00000000E+00
  0.00000000E+00  0.00000000E+00  0.00000000E+00
  0.00000000E+00  0.00000000E+00  0.00000000E+00
  0.00000000E+00  0.00000000E+00  0.00000000E+00
  0.00000000E+00  0.00000000E+00  0.00000000E+00
  0.00000000E+00  0.00000000E+00  0.00000000E+00
  0.00000000E+00  0.00000000E+00  0.00000000E+00
  0.00000000E+00  0.00000000E+00  0.00000000E+00
  0.00000000E+00  0.00000000E+00  0.00000000E+00
  0.00000000E+00  0.00000000E+00  0.00000000E+00
  0.00000000E+00  0.00000000E+00  0.00000000E+00
  0.00000000E+00  0.00000000E+00  0.00000000E+00
  0.00000000E+00  0.00000000E+00  0.00000000E+00
  0.00000000E+00  0.00000000E+00  0.00000000E+00
  0.00000000E+00  0.00000000E+00  0.00000000E+00
  0.00000000E+00  0.00000000E+00  0.00000000E+00
  0.00000000E+00  0.00000000E+00  0.00000000E+00
  0.00000000E+00  0.00000000E+00  0.00000000E+00
  0.00000000E+00  0.00000000E+00  0.00000000E+00
  0.00000000E+00  0.00000000E+00  0.00000000E+00
  0.00000000E+00  0.00000000E+00  0.00000000E+00
  0.00000000E+00  0.00000000E+00  0.00000000E+00
  0.00000000E+00  0.00000000E+00  0.00000000E+00
  0.00000000E+00  0.00000000E+00  0.00000000E+00
  0.00000000E+00  0.00000000E+00  0.00000000E+00
  0.00000000E+00  0.00000000E+00  0.00000000E+00
  0.00000000E+00  0.00000000E+00  0.00000000E+00
  0.00000000E+00  0.00000000E+00  0.00000000E+00
  0.00000000E+00  0.00000000E+00  0.00000000E+00
  0.00000000E+00  0.00000000E+00  0.00000000E+00
  0.00000000E+00  0.00000000E+00  0.00000000E+00
  0.00000000E+00  0.00000000E+00  0.00000000E+00
  0.00000000E+00  0.00000000E+00  0.00000000E+00
  0.00000000E+00  0.00000000E+00  0.00000000E+00
  0.00000000E+00  0.00000000E+00  0.00000000E+00
  0.00000000E+00  0.00000000E+00  0.00000000E+00
  0.00000000E+00  0.00000000E+00  0.00000000E+00
  0.00000000E+00  0.00000000E+00  0.00000000E+00
  0.00000000E+00  0.00000000E+00  0.00000000E+00
  0.00000000E+00  0.00000000E+00  0.00000000E+00
  0.00000000E+00  0.00000000E+00  0.00000000E+00
  0.00000000E+00  0.00000000E+00  0.00000000E+00
  0.00000000E+00  0.00000000E+00  0.00000000E+00
  0.00000000E+00  0.00000000E+00  0.00000000E+00
  0.00000000E+00  0.00000000E+00  0.00000000E+00
  0.00000000E+00  0.00000000E+00  0.00000000E+00
  0.00000000E+00  0.00000000E+00  0.00000000E+00
  0.00000000E+00  0.00000000E+00  0.00000000E+00
  0.00000000E+00  0.00000000E+00  0.00000000E+00
  0.00000000E+00  0.00000000E+00  0.00000000E+00
  0.00000000E+00  0.00000000E+00  0.00000000E+00
  0.00000000E+00  0.00000000E+00  0.00000000E+00
  0.00000000E+00  0.00000000E+00  0.00000000E+00
  0.00000000E+00  0.00000000E+00  0.00000000E+00
  0.00000000E+00  0.00000000E+00  0.00000000E+00
  0.00000000E+00  0.00000000E+00  0.00000000E+00
  0.00000000E+00  0.00000000E+00  0.00000000E+00
  0.00000000E+00  0.00000000E+00  0.00000000E+00
  0.00000000E+00  0.00000000E+00  0.00000000E+00
  0.00000000E+00  0.00000000E+00  0.00000000E+00
  0.00000000E+00  0.00000000E+00  0.00000000E+00
  0.00000000E+00  0.00000000E+00  0.00000000E+00
  0.00000000E+00  0.00000000E+00  0.00000000E+00
  0.00000000E+00  0.00000000E+00  0.00000000E+00
  0.00000000E+00  0.00000000E+00  0.00000000E+00
  0.00000000E+00  0.00000000E+00  0.00000000E+00
  0.00000000E+00  0.00000000E+00  0.00000000E+00
  0.00000000E+00  0.00000000E+00  0.00000000E+00
  0.00000000E+00  0.00000000E+00  0.00000000E+00
  0.00000000E+00  0.00000000E+00  0.00000000E+00
  0.00000000E+00  0.00000000E+00  0.00000000E+00
  0.00000000E+00  0.00000000E+00  0.00000000E+00
  0.00000000E+00  0.00000000E+00  0.00000000E+00
  0.00000000E+00  0.00000000E+00  0.00000000E+00
  0.00000000E+00  0.00000000E+00  0.00000000E+00
  0.00000000E+00  0.00000000E+00  0.00000000E+00
  0.00000000E+00  0.00000000E+00  0.00000000E+00
  0.00000000E+00  0.00000000E+00  0.00000000E+00
  0.00000000E+00  0.00000000E+00  0.00000000E+00
  0.00000000E+00  0.00000000E+00  0.00000000E+00
  0.00000000E+00  0.00000000E+00  0.00000000E+00
  0.00000000E+00  0.00000000E+00  0.00000000E+00
  0.00000000E+00  0.00000000E+00  0.00000000E+00
  0.00000000E+00  0.00000000E+00  0.00000000E+00
  0.00000000E+00  0.00000000E+00  0.00000000E+00
  0.00000000E+00  0.00000000E+00  0.00000000E+00
  0.00000000E+00  0.00000000E+00  0.00000000E+00
  0.00000000E+00  0.00000000E+00  0.00000000E+00
  0.00000000E+00  0.00000000E+00  0.00000000E+00
  0.00000000E+00  0.00000000E+00  0.00000000E+00
  0.00000000E+00  0.00000000E+00  0.00000000E+00
  0.00000000E+00  0.00000000E+00  0.00000000E+00
  0.00000000E+00  0.00000000E+00  0.00000000E+00
  0.00000000E+00  0.00000000E+00  0.00000000E+00
  0.00000000E+00  0.00000000E+00  0.00000000E+00
  0.00000000E+00  0.00000000E+00  0.00000000E+00
  0.00000000E+00  0.00000000E+00  0.00000000E+00
  0.00000000E+00  0.00000000E+00  0.00000000E+00
  0.00000000E+00  0.00000000E+00  0.00000000E+00
  0.00000000E+00  0.00000000E+00  0.00000000E+00
  0.00000000E+00  0.00000000E+00  0.00000000E+00
  0.00000000E+00  0.00000000E+00  0.00000000E+00
  0.00000000E+00  0.00000000E+00  0.00000000E+00
  0.00000000E+00  0.00000000E+00  0.00000000E+00
  0.00000000E+00  0.00000000E+00  0.00000000E+00
  0.00000000E+00  0.00000000E+00  0.00000000E+00
  0.00000000E+00  0.00000000E+00  0.00000000E+00
  0.00000000E+00  0.00000000E+00  0.00000000E+00
  0.00000000E+00  0.00000000E+00  0.00000000E+00
  0.00000000E+00  0.00000000E+00  0.00000000E+00
  0.00000000E+00  0.00000000E+00  0.00000000E+00
  0.00000000E+00  0.00000000E+00  0.00000000E+00
  0.00000000E+00  0.00000000E+00  0.00000000E+00
  0.00000000E+00  0.00000000E+00  0.00000000E+00
  0.00000000E+00  0.00000000E+00  0.00000000E+00
  0.00000000E+00  0.00000000E+00  0.00000000E+00
  0.00000000E+00  0.00000000E+00  0.00000000E+00
  0.00000000E+00  0.00000000E+00  0.00000000E+00
  0.00000000E+00  0.00000000E+00  0.00000000E+00
  0.00000000E+00  0.00000000E+00  0.00000000E+00
  0.00000000E+00  0.00000000E+00  0.00000000E+00
  0.00000000E+00  0.00000000E+00  0.00000000E+00
  0.00000000E+00  0.00000000E+00  0.00000000E+00
