#generated using str2pos                
    1.000000000000000     
    12.7954293569602235   -0.0011374588155767   -0.0002141060361718
    -0.0011361673222446   12.7994472242288495    0.0007440117059348
    -0.0002137277188261    0.0007447787771495   12.7997364597499583
   Ta   W 
    32    96
Direct
  0.5003977472137594  0.2498885956259961  0.2502584722783683
  0.7487848837483865  0.2507889586296668  0.2488712894092203
  0.1241174827274321  0.3760055806436833  0.1260283702587322
  0.1247524300933295  0.6246381274262495  0.1249097199027835
  0.3746289449660452  0.6254472475077838  0.1249371397978935
  0.6250980221564277  0.6256174458703280  0.1243691617094741
  0.8754217066598263  0.6254960517965501  0.1246965580805365
  0.2495425337586398 -0.0001043074938199  0.2500254079815095
  0.3756152787550734  0.8739096973155538  0.1240070754483797
  0.6244289679143312  0.8739455397973328  0.1258620027229895
  0.1248615575516489  0.1248432387735270  0.3753101783070442
  0.4994893677529202  0.2498106504985697  0.5001996074630845
  0.0004252501039625  0.2517389487875275  0.5023710622423816
  0.8765144634160955  0.1239557863229339  0.3742724215908019
  0.0009521424031721  0.4995148282377853  0.5014770065062201
  0.3746948702747833  0.6249173259076418  0.3753025690994799
  0.6246895764032219  0.6255314464796972  0.3756002891312584
  0.8745825492124112  0.6260459397597598  0.3742568520937069
  0.7498221504667908  0.0001300981888978  0.5023314757343058
  0.6242619377939681  0.8739183569731780  0.3743124152412938
  0.0000260246185815  0.2500127813393253  0.7502628264223296
  0.2503538891997194  0.4997339278126087  0.7496035350379019
  0.0000353623127160  0.4996782647839877  0.7499593304299480
  0.6247747580221064  0.6244182820462949  0.6257146301788359
  0.1251650526452586  0.8748472971968527  0.6254504687697008
  0.4999179805103517 -0.0000784315153780  0.7497142157944759
  0.7495720497399104  0.0001537702357341  0.7499437786450083
  0.2509121653088765  0.2492025627298939 -0.0013929178844064
  0.4997574939535495  0.2502131203311270 -0.0004034365208341
  0.7498329724944136  0.2499929810454114 -0.0004401236532890
  0.1250346559322827  0.8749068344779422  0.8743750126154801
  0.7511936156588684  0.0010178473841402 -0.0017279565106402
  0.2514867363346595  0.2494257107030489  0.2499655220480677
  0.1238226081182185  0.1253032414433942  0.1250018590085679
  0.3744044672528468  0.1230469074265733  0.1245135110481690
  0.6244556735578484  0.1226528716740473  0.1251450969025083
 -0.0008906348582101  0.2501505862619853  0.2493006676660716
  0.8774888531912889  0.1240525924846932  0.1254005716069475
  0.2499399702870617  0.4986795188266041  0.2520130680642295
  0.4997530471850653  0.4963952897528460  0.2498652390330897
  0.3737354026776084  0.3770314217977684  0.1255767692869365
  0.7498564495794764  0.4967658471094629  0.2497652924313899
  0.6251006521538446  0.3781601591231208  0.1242713623721110
  0.0000594664110147  0.4992724124518993  0.2516939161517857
  0.8767333895681803  0.3765805810722007  0.1245418188437682
  0.2475731442640942  0.7517363396833561  0.2520177819073556
  0.4986274051118172  0.7506577875090005  0.2508518848512681
  0.7524187788851087  0.7513926768314444  0.2497372748750090
  0.0010391428467429  0.7526060211871322  0.2506447739580149
  0.1242519533288487  0.8742587502908795  0.1242040154817677
  0.4984866783467833  0.0027838513488394  0.2506005001709374
  0.7509721430740186  0.0014674176323455  0.2491497483171908
  0.0009777141446088 -0.0014167397332377  0.2479281923911518
  0.8758468621374025  0.8741970915370181  0.1252846678448259
  0.2512323886590400  0.2505116878434904  0.5014612266451950
  0.3735528664136680  0.1243924747724284  0.3763496502135728
  0.7487321846187067  0.2502748494911385  0.5009200090723824
  0.6248437401749704  0.1234512731786798  0.3754849090127840
  0.2494260176364169  0.4994072462477773  0.5015375791585104
  0.1267450073372063  0.3750393544578868  0.3734760352836661
  0.4989933313440729  0.4974022116644905  0.5014964892040685
  0.3738602846661889  0.3766955296652880  0.3757569136624387
  0.7506225183599388  0.4980906329189638  0.5014869623747595
  0.6250349721458730  0.3772990091972811  0.3762495274022760
  0.8743525243717848  0.3759943488733116  0.3744829545015159
  0.2497277510744032  0.7498854305319186  0.5008244797931763
  0.1258761625126334  0.6257953043300826  0.3745889333352087
  0.4978715592295098  0.7513452955475306  0.5028839180465118
  0.7515462833125697  0.7514661792914514  0.5024591862588731
  0.0007225346586510  0.7496928610161606  0.5003625160879871
  0.2515099662768365 -0.0001381731415192  0.5001960730561712
  0.1244394053868226  0.8744987490161027  0.3763105072145029
  0.4993828454025523  0.0013954664617503  0.5014550839114511
  0.3752345115194570  0.8737579969634639  0.3758688189028085
 -0.0002547609500115 -0.0008638606379293  0.5007813393500975
  0.8756926043641636  0.8740385253732174  0.3746181366897231
  0.2499539598955657  0.2501967558301702  0.7500475040135282
  0.1270153304845973  0.1227681050629044  0.6253033836195285
  0.5000622485527546  0.2496350166000713  0.7494524007816400
  0.3737094152391632  0.1249059712394250  0.6252949040852578
  0.7501539485488271  0.2503726784163533  0.7502338245941279
  0.6241270220697585  0.1270300738526575  0.6251941738621369
  0.8752129278832892  0.1248390813207752  0.6253977243133602
  0.1277718327367944  0.3741813070795046  0.6244534720200631
  0.4994172998970460  0.4995161468070063  0.7508015004687213
  0.3757563505076028  0.3747154477969666  0.6249574656023167
  0.7501337828380855  0.4995315851104259  0.7506611699540424
  0.6249796630351663  0.3763548444079915  0.6260179935934493
  0.8715871081209273  0.3753671158905452  0.6257450327560357
  0.2514800124557589  0.7483820382688758  0.7493906425752072
  0.1259488751263511  0.6275506845793923  0.6245929211942117
  0.4996120798467275  0.7505492183069115  0.7505066860251082
  0.3757626496836625  0.6257322111205826  0.6245794071019789
  0.7503375864697835  0.7501033395960501  0.7506471371683149
 -0.0013100823823566  0.7487413676710294  0.7500549847244722
  0.8734621288226107  0.6265090548898236  0.6254486610565280
  0.2516972306610775  0.0012155239848815  0.7497283664701264
  0.3735881890736116  0.8745684134040049  0.6245557070913543
  0.6240697414204994  0.8725624425462739  0.6243704298373800
 -0.0009606229641547  0.0013963155081066  0.7508011324591282
  0.8769276391237882  0.8735157803478453  0.6253802588155424
  0.1254442105085935  0.1228878645503589  0.8750530696357067
  0.3739400418118077  0.1241165006645549  0.8734185416873430
  0.6239763363457516  0.1262607450099560  0.8736161428071012
 -0.0001474526607674  0.2490708041875190 -0.0012782062235393
  0.8769933798223739  0.1250632782505102  0.8751364124931497
  0.2508442960200983  0.4988596247561790 -0.0026124908398496
  0.1251429791736703  0.3748186935691932  0.8768997958027134
  0.5003438337899389  0.4987547775508435 -0.0020785663928097
  0.3762954372374259  0.3758765681744337  0.8735395934956128
  0.7496257331444828  0.4987606291033636 -0.0021696934923952
  0.6249791693268911  0.3773707570497608  0.8728491674348899
 -0.0010044329814975  0.4996932411471112 -0.0022636650902863
  0.8736632117576683  0.3762873708914398  0.8755416313252639
  0.2497550790446939  0.7500028535754435 -0.0021696263569121
  0.1251082402014211  0.6269451141774817  0.8762146860653769
  0.4999898574820450  0.7494648311415716 -0.0041660105208383
  0.3758285068938617  0.6255902145280721  0.8750770246443819
  0.7508974587161731  0.7505744964818575 -0.0031757950298076
  0.6248356282057641  0.6246527054537629  0.8741678723984397
 -0.0006094585930089  0.7511849548186783 -0.0009061508352123
  0.8741205276211466  0.6258144918880469  0.8755978147262899
  0.2495715656342228  0.0015836987072119 -0.0002976954186808
  0.5001543825080458  0.0014052601925808 -0.0023235523528361
  0.3739623967200745  0.8738165063317648  0.8749340612851125
  0.6243578372608795  0.8723165626641018  0.8754217146148111
 -0.0004432603749743  0.0005067615441180  0.0004626253129796
  0.8769356923536360  0.8733086495573403  0.8749111928776138
 
  0.00000000E+00  0.00000000E+00  0.00000000E+00
  0.00000000E+00  0.00000000E+00  0.00000000E+00
  0.00000000E+00  0.00000000E+00  0.00000000E+00
  0.00000000E+00  0.00000000E+00  0.00000000E+00
  0.00000000E+00  0.00000000E+00  0.00000000E+00
  0.00000000E+00  0.00000000E+00  0.00000000E+00
  0.00000000E+00  0.00000000E+00  0.00000000E+00
  0.00000000E+00  0.00000000E+00  0.00000000E+00
  0.00000000E+00  0.00000000E+00  0.00000000E+00
  0.00000000E+00  0.00000000E+00  0.00000000E+00
  0.00000000E+00  0.00000000E+00  0.00000000E+00
  0.00000000E+00  0.00000000E+00  0.00000000E+00
  0.00000000E+00  0.00000000E+00  0.00000000E+00
  0.00000000E+00  0.00000000E+00  0.00000000E+00
  0.00000000E+00  0.00000000E+00  0.00000000E+00
  0.00000000E+00  0.00000000E+00  0.00000000E+00
  0.00000000E+00  0.00000000E+00  0.00000000E+00
  0.00000000E+00  0.00000000E+00  0.00000000E+00
  0.00000000E+00  0.00000000E+00  0.00000000E+00
  0.00000000E+00  0.00000000E+00  0.00000000E+00
  0.00000000E+00  0.00000000E+00  0.00000000E+00
  0.00000000E+00  0.00000000E+00  0.00000000E+00
  0.00000000E+00  0.00000000E+00  0.00000000E+00
  0.00000000E+00  0.00000000E+00  0.00000000E+00
  0.00000000E+00  0.00000000E+00  0.00000000E+00
  0.00000000E+00  0.00000000E+00  0.00000000E+00
  0.00000000E+00  0.00000000E+00  0.00000000E+00
  0.00000000E+00  0.00000000E+00  0.00000000E+00
  0.00000000E+00  0.00000000E+00  0.00000000E+00
  0.00000000E+00  0.00000000E+00  0.00000000E+00
  0.00000000E+00  0.00000000E+00  0.00000000E+00
  0.00000000E+00  0.00000000E+00  0.00000000E+00
  0.00000000E+00  0.00000000E+00  0.00000000E+00
  0.00000000E+00  0.00000000E+00  0.00000000E+00
  0.00000000E+00  0.00000000E+00  0.00000000E+00
  0.00000000E+00  0.00000000E+00  0.00000000E+00
  0.00000000E+00  0.00000000E+00  0.00000000E+00
  0.00000000E+00  0.00000000E+00  0.00000000E+00
  0.00000000E+00  0.00000000E+00  0.00000000E+00
  0.00000000E+00  0.00000000E+00  0.00000000E+00
  0.00000000E+00  0.00000000E+00  0.00000000E+00
  0.00000000E+00  0.00000000E+00  0.00000000E+00
  0.00000000E+00  0.00000000E+00  0.00000000E+00
  0.00000000E+00  0.00000000E+00  0.00000000E+00
  0.00000000E+00  0.00000000E+00  0.00000000E+00
  0.00000000E+00  0.00000000E+00  0.00000000E+00
  0.00000000E+00  0.00000000E+00  0.00000000E+00
  0.00000000E+00  0.00000000E+00  0.00000000E+00
  0.00000000E+00  0.00000000E+00  0.00000000E+00
  0.00000000E+00  0.00000000E+00  0.00000000E+00
  0.00000000E+00  0.00000000E+00  0.00000000E+00
  0.00000000E+00  0.00000000E+00  0.00000000E+00
  0.00000000E+00  0.00000000E+00  0.00000000E+00
  0.00000000E+00  0.00000000E+00  0.00000000E+00
  0.00000000E+00  0.00000000E+00  0.00000000E+00
  0.00000000E+00  0.00000000E+00  0.00000000E+00
  0.00000000E+00  0.00000000E+00  0.00000000E+00
  0.00000000E+00  0.00000000E+00  0.00000000E+00
  0.00000000E+00  0.00000000E+00  0.00000000E+00
  0.00000000E+00  0.00000000E+00  0.00000000E+00
  0.00000000E+00  0.00000000E+00  0.00000000E+00
  0.00000000E+00  0.00000000E+00  0.00000000E+00
  0.00000000E+00  0.00000000E+00  0.00000000E+00
  0.00000000E+00  0.00000000E+00  0.00000000E+00
  0.00000000E+00  0.00000000E+00  0.00000000E+00
  0.00000000E+00  0.00000000E+00  0.00000000E+00
  0.00000000E+00  0.00000000E+00  0.00000000E+00
  0.00000000E+00  0.00000000E+00  0.00000000E+00
  0.00000000E+00  0.00000000E+00  0.00000000E+00
  0.00000000E+00  0.00000000E+00  0.00000000E+00
  0.00000000E+00  0.00000000E+00  0.00000000E+00
  0.00000000E+00  0.00000000E+00  0.00000000E+00
  0.00000000E+00  0.00000000E+00  0.00000000E+00
  0.00000000E+00  0.00000000E+00  0.00000000E+00
  0.00000000E+00  0.00000000E+00  0.00000000E+00
  0.00000000E+00  0.00000000E+00  0.00000000E+00
  0.00000000E+00  0.00000000E+00  0.00000000E+00
  0.00000000E+00  0.00000000E+00  0.00000000E+00
  0.00000000E+00  0.00000000E+00  0.00000000E+00
  0.00000000E+00  0.00000000E+00  0.00000000E+00
  0.00000000E+00  0.00000000E+00  0.00000000E+00
  0.00000000E+00  0.00000000E+00  0.00000000E+00
  0.00000000E+00  0.00000000E+00  0.00000000E+00
  0.00000000E+00  0.00000000E+00  0.00000000E+00
  0.00000000E+00  0.00000000E+00  0.00000000E+00
  0.00000000E+00  0.00000000E+00  0.00000000E+00
  0.00000000E+00  0.00000000E+00  0.00000000E+00
  0.00000000E+00  0.00000000E+00  0.00000000E+00
  0.00000000E+00  0.00000000E+00  0.00000000E+00
  0.00000000E+00  0.00000000E+00  0.00000000E+00
  0.00000000E+00  0.00000000E+00  0.00000000E+00
  0.00000000E+00  0.00000000E+00  0.00000000E+00
  0.00000000E+00  0.00000000E+00  0.00000000E+00
  0.00000000E+00  0.00000000E+00  0.00000000E+00
  0.00000000E+00  0.00000000E+00  0.00000000E+00
  0.00000000E+00  0.00000000E+00  0.00000000E+00
  0.00000000E+00  0.00000000E+00  0.00000000E+00
  0.00000000E+00  0.00000000E+00  0.00000000E+00
  0.00000000E+00  0.00000000E+00  0.00000000E+00
  0.00000000E+00  0.00000000E+00  0.00000000E+00
  0.00000000E+00  0.00000000E+00  0.00000000E+00
  0.00000000E+00  0.00000000E+00  0.00000000E+00
  0.00000000E+00  0.00000000E+00  0.00000000E+00
  0.00000000E+00  0.00000000E+00  0.00000000E+00
  0.00000000E+00  0.00000000E+00  0.00000000E+00
  0.00000000E+00  0.00000000E+00  0.00000000E+00
  0.00000000E+00  0.00000000E+00  0.00000000E+00
  0.00000000E+00  0.00000000E+00  0.00000000E+00
  0.00000000E+00  0.00000000E+00  0.00000000E+00
  0.00000000E+00  0.00000000E+00  0.00000000E+00
  0.00000000E+00  0.00000000E+00  0.00000000E+00
  0.00000000E+00  0.00000000E+00  0.00000000E+00
  0.00000000E+00  0.00000000E+00  0.00000000E+00
  0.00000000E+00  0.00000000E+00  0.00000000E+00
  0.00000000E+00  0.00000000E+00  0.00000000E+00
  0.00000000E+00  0.00000000E+00  0.00000000E+00
  0.00000000E+00  0.00000000E+00  0.00000000E+00
  0.00000000E+00  0.00000000E+00  0.00000000E+00
  0.00000000E+00  0.00000000E+00  0.00000000E+00
  0.00000000E+00  0.00000000E+00  0.00000000E+00
  0.00000000E+00  0.00000000E+00  0.00000000E+00
  0.00000000E+00  0.00000000E+00  0.00000000E+00
  0.00000000E+00  0.00000000E+00  0.00000000E+00
  0.00000000E+00  0.00000000E+00  0.00000000E+00
  0.00000000E+00  0.00000000E+00  0.00000000E+00
  0.00000000E+00  0.00000000E+00  0.00000000E+00
  0.00000000E+00  0.00000000E+00  0.00000000E+00
  0.00000000E+00  0.00000000E+00  0.00000000E+00
