#generated using str2pos                
    1.000000000000000     
    12.7993795635470846   -0.0001355188565328    0.0011166800806228
    -0.0001354627126629   12.7986895936584233   -0.0013160815743631
     0.0011167841049859   -0.0013161987122778   12.7968177371509615
   Ta   W 
    32    96
Direct
  0.3741826949900721  0.1255893685142659  0.1246856543900400
  0.7511719317320246  0.2512832995883511  0.2493733965188716
 -0.0000719678535330  0.2496244491800492  0.2502300814500379
  0.3759646045381451  0.3746787486700876  0.1265932000915774
  0.8745224023380714  0.6258609881128262  0.1254196095945007
  0.4998991627710171 -0.0004142909222754  0.2482996654396063
 -0.0000407464509571 -0.0002693801528313  0.2500461137865857
  0.6250246877935044  0.1252806208594122  0.3768843205277777
  0.1247840935892426  0.6246478795593881  0.3748163445818209
  0.3746490101112560  0.6249520695213782  0.3749322325019391
  0.7511697319856255  0.7488813584571739  0.5007796808816349
  0.3743303568988864  0.8737767613264034  0.3749099181940506
  0.6251409479460156  0.8745314685510733  0.3745675843809336
  0.2484181422264435  0.2477933006259952  0.7471908337768899
  0.8747608520432136  0.1253743583939551  0.6249102862521909
  0.3759273214613638  0.3760849368924719  0.6233792899371483
  0.8747886555313813  0.3746579466240742  0.6243744255344317
  0.2499891812870431  0.7505316878657796  0.7523769111927804
  0.3759245872626469  0.6238819890895380  0.6241246719347668
  0.7492659949832016  0.7494231183517716  0.7491639104664366
  0.2503933884497832 -0.0005479411716301  0.7499747466270553
  0.1231564969986191  0.8746832193925863  0.6232196921166651
  0.5009908381748569 -0.0013939373070867  0.7496789672385692
  0.3761182650819150  0.1254877889923267  0.8779954142818035
  0.7505601085749303  0.2481888478884645  0.0019817902634693
 -0.0009271814382040  0.2482746493531806  0.0021117982816947
  0.2493197309036305  0.5039496637656848  0.0013598298672578
  0.1237389548327538  0.3763158943285492  0.8739597872591779
  0.3768464182160775  0.3754141452600286  0.8749262151725573
  0.6247469711609136  0.3763690609534629  0.8740203848792384
  0.8745480396424077  0.3767753925639982  0.8726405999692189
  0.8754430851719350  0.8753257273465688  0.8763615394374086
  0.2483230983365877  0.2500913243738278  0.2524963061572016
  0.1272175293544156  0.1233117476228915  0.1253878573213969
  0.5007514216710023  0.2513293249013311  0.2517630087598434
  0.6240476656903463  0.1237443409979751  0.1247605052792491
  0.8745169357835491  0.1218331861228130  0.1246779357915141
  0.2494687094659149  0.4994451385164621  0.2493242556165081
  0.1261251810640052  0.3760976027376393  0.1266122296615637
  0.5018356413216178  0.5004529527502088  0.2501261718187469
  0.7494240873930236  0.4997464894053333  0.2510099324976223
  0.6236078182882350  0.3773759067365010  0.1253838019892785
 -0.0005691667760284  0.4991078465085045  0.2507268245247284
  0.8748152262293737  0.3788865612977338  0.1255539524677528
  0.2491445532943823  0.7506610436071424  0.2473543875103605
  0.1238406093727930  0.6267655974973114  0.1260325995748171
  0.5006507885696373  0.7488835930829190  0.2470493252015167
  0.3760638486107398  0.6260485837725819  0.1258041456866345
  0.7502176792700895  0.7493590863447300  0.2502305655667512
  0.6256133968348431  0.6255256083208524  0.1248495778537023
 -0.0001836649012502  0.7514519343960981  0.2499054886342491
  0.2480928736414098 -0.0001087314340302  0.2500726846019448
  0.1255012583972433  0.8741334989113768  0.1245515029380875
  0.3742142063963157  0.8742916867537829  0.1248563941846167
  0.7518886810616489 -0.0002269348281238  0.2486533614425585
  0.6255921056304783  0.8731781439855444  0.1242188392814065
  0.8745246248845341  0.8729596050343098  0.1242369212677859
  0.2497066050305108  0.2490226340517926  0.4987292830957650
  0.1263052785355834  0.1253089876494778  0.3761059146454158
  0.4996206349191865  0.2503720920225435  0.4996607635748004
  0.3741140180068355  0.1255959856371122  0.3751067936899949
  0.7492894951692821  0.2509351743529380  0.4988405017965772
  0.0015966776512507  0.2501535770279263  0.4981270019073037
  0.8745230202166225  0.1242140375272283  0.3778321601049147
  0.2485255127132371  0.4977072771951432  0.4990292646952933
  0.1256641245543815  0.3757941239627519  0.3756060908846819
  0.5026244084980589  0.4986223719685385  0.4986015890443946
  0.3749475648995689  0.3751986011373197  0.3750302477438375
  0.7498992335708304  0.5009752628459405  0.4987348229501812
  0.6245182403378913  0.3756688532641169  0.3755793144077512
 -0.0006190834290072  0.5001869022924721  0.4997490258038658
  0.8751138235824141  0.3767801971117292  0.3767654768187089
  0.2487825744393419  0.7507537670170712  0.5004636548061331
  0.5020958778670637  0.7493552609377701  0.5011841970640616
  0.6247915846323099  0.6237010286526075  0.3739893812741569
 -0.0020150157677616  0.7498549634031410  0.4995694804818264
  0.8759642052120874  0.6244114975473578  0.3738688656735376
  0.2493173121531249  0.0017499140080554  0.4995257573601894
  0.1254964317725946  0.8742149497155750  0.3750272023285232
  0.4991128229648958  0.0008608593194686  0.5022081864861079
  0.7509577635200211 -0.0012106064141492  0.5007804336347150
 -0.0001723009179901 -0.0002739381617698  0.4980780726415281
  0.8751235632761323  0.8743509908644969  0.3744424575946511
  0.1229364897316167  0.1243858420153085  0.6228456263609367
  0.5013716673205412  0.2482370417360589  0.7477589116126233
  0.3759689673720390  0.1259604130170787  0.6228554320940892
  0.7488297075938123  0.2487187066840031  0.7499151817181322
  0.6264762606699158  0.1256775468925848  0.6241806124176846
  0.0010749317212993  0.2489697802772974  0.7496592247167291
  0.2485229287819706  0.5019698716606172  0.7500523153626687
  0.1240017716994303  0.3756151278208655  0.6232906407339990
  0.5021966401892390  0.5020267989974790  0.7495578584114218
  0.7497884573979091  0.5027706447362642  0.7486437724108410
  0.6251945693295613  0.3750805778611431  0.6244327337117886
 -0.0001233351006973  0.5025667572044618  0.7485018223497226
  0.1241004467572053  0.6247708722038310  0.6240862558889402
  0.5009334186288803  0.7508469758550032  0.7517979347444853
  0.6240411347368553  0.6235673404450649  0.6252182487334991
 -0.0003573049288133  0.7486465495211266  0.7503465076118472
  0.8758598817946133  0.6232956341280940  0.6246385328424967
  0.3752094790725793  0.8736846903975257  0.6228098240279243
  0.7486161707319480 -0.0008130136801613  0.7505262397297882
  0.6245410879215967  0.8752286439552270  0.6246807813857397
  0.0001699676370036 -0.0000837362065333  0.7506176201818430
  0.8762486628283376  0.8764478044577699  0.6253247651344127
  0.2473958727231443  0.2496786015129448  0.0012325688356271
  0.1241427386236339  0.1237664008112382  0.8756943100809162
  0.5030630291591257  0.2495240630162895  0.0010687431832667
  0.6252613786753206  0.1248808179780344  0.8745598006458851
  0.8746992706299860  0.1228266089420263  0.8728920839516625
  0.5006852291556002  0.5036820682752653  0.0011088453979911
  0.7491902680051232  0.5012987384107331  0.0011225731133253
  0.0005098745194776  0.5017207547769498  0.0006510144645967
  0.2504601097248437  0.7504240274127522  0.0003283948743776
  0.1236110961925436  0.6256954468241748  0.8752149789857105
  0.4998801246194408  0.7501956810800966  0.0001449906799999
  0.3763190587756972  0.6258257888089797  0.8751177262937290
  0.7485267544098602  0.7506268107593431  0.0000898300521959
  0.6244507392683987  0.6247267803073411  0.8759198033893963
  0.0012966993429126  0.7506507566337832  0.0003995070183125
  0.8752750840280796  0.6254206578607775  0.8759403992239534
  0.2485591189852300 -0.0024004024200453  0.0005388008619448
  0.1230677914085082  0.8744242297320812  0.8766530169718556
  0.5016668849302589 -0.0026078407130016 -0.0002060283289989
  0.3758201735342034  0.8741284557244470  0.8777028191134009
  0.7498571497548081  0.0000633413122101  0.0005227534158806
  0.6256706427003530  0.8744028263970701  0.8767283179851180
  0.0002426656989491 -0.0001885762509957  0.0012704946413511
 
  0.00000000E+00  0.00000000E+00  0.00000000E+00
  0.00000000E+00  0.00000000E+00  0.00000000E+00
  0.00000000E+00  0.00000000E+00  0.00000000E+00
  0.00000000E+00  0.00000000E+00  0.00000000E+00
  0.00000000E+00  0.00000000E+00  0.00000000E+00
  0.00000000E+00  0.00000000E+00  0.00000000E+00
  0.00000000E+00  0.00000000E+00  0.00000000E+00
  0.00000000E+00  0.00000000E+00  0.00000000E+00
  0.00000000E+00  0.00000000E+00  0.00000000E+00
  0.00000000E+00  0.00000000E+00  0.00000000E+00
  0.00000000E+00  0.00000000E+00  0.00000000E+00
  0.00000000E+00  0.00000000E+00  0.00000000E+00
  0.00000000E+00  0.00000000E+00  0.00000000E+00
  0.00000000E+00  0.00000000E+00  0.00000000E+00
  0.00000000E+00  0.00000000E+00  0.00000000E+00
  0.00000000E+00  0.00000000E+00  0.00000000E+00
  0.00000000E+00  0.00000000E+00  0.00000000E+00
  0.00000000E+00  0.00000000E+00  0.00000000E+00
  0.00000000E+00  0.00000000E+00  0.00000000E+00
  0.00000000E+00  0.00000000E+00  0.00000000E+00
  0.00000000E+00  0.00000000E+00  0.00000000E+00
  0.00000000E+00  0.00000000E+00  0.00000000E+00
  0.00000000E+00  0.00000000E+00  0.00000000E+00
  0.00000000E+00  0.00000000E+00  0.00000000E+00
  0.00000000E+00  0.00000000E+00  0.00000000E+00
  0.00000000E+00  0.00000000E+00  0.00000000E+00
  0.00000000E+00  0.00000000E+00  0.00000000E+00
  0.00000000E+00  0.00000000E+00  0.00000000E+00
  0.00000000E+00  0.00000000E+00  0.00000000E+00
  0.00000000E+00  0.00000000E+00  0.00000000E+00
  0.00000000E+00  0.00000000E+00  0.00000000E+00
  0.00000000E+00  0.00000000E+00  0.00000000E+00
  0.00000000E+00  0.00000000E+00  0.00000000E+00
  0.00000000E+00  0.00000000E+00  0.00000000E+00
  0.00000000E+00  0.00000000E+00  0.00000000E+00
  0.00000000E+00  0.00000000E+00  0.00000000E+00
  0.00000000E+00  0.00000000E+00  0.00000000E+00
  0.00000000E+00  0.00000000E+00  0.00000000E+00
  0.00000000E+00  0.00000000E+00  0.00000000E+00
  0.00000000E+00  0.00000000E+00  0.00000000E+00
  0.00000000E+00  0.00000000E+00  0.00000000E+00
  0.00000000E+00  0.00000000E+00  0.00000000E+00
  0.00000000E+00  0.00000000E+00  0.00000000E+00
  0.00000000E+00  0.00000000E+00  0.00000000E+00
  0.00000000E+00  0.00000000E+00  0.00000000E+00
  0.00000000E+00  0.00000000E+00  0.00000000E+00
  0.00000000E+00  0.00000000E+00  0.00000000E+00
  0.00000000E+00  0.00000000E+00  0.00000000E+00
  0.00000000E+00  0.00000000E+00  0.00000000E+00
  0.00000000E+00  0.00000000E+00  0.00000000E+00
  0.00000000E+00  0.00000000E+00  0.00000000E+00
  0.00000000E+00  0.00000000E+00  0.00000000E+00
  0.00000000E+00  0.00000000E+00  0.00000000E+00
  0.00000000E+00  0.00000000E+00  0.00000000E+00
  0.00000000E+00  0.00000000E+00  0.00000000E+00
  0.00000000E+00  0.00000000E+00  0.00000000E+00
  0.00000000E+00  0.00000000E+00  0.00000000E+00
  0.00000000E+00  0.00000000E+00  0.00000000E+00
  0.00000000E+00  0.00000000E+00  0.00000000E+00
  0.00000000E+00  0.00000000E+00  0.00000000E+00
  0.00000000E+00  0.00000000E+00  0.00000000E+00
  0.00000000E+00  0.00000000E+00  0.00000000E+00
  0.00000000E+00  0.00000000E+00  0.00000000E+00
  0.00000000E+00  0.00000000E+00  0.00000000E+00
  0.00000000E+00  0.00000000E+00  0.00000000E+00
  0.00000000E+00  0.00000000E+00  0.00000000E+00
  0.00000000E+00  0.00000000E+00  0.00000000E+00
  0.00000000E+00  0.00000000E+00  0.00000000E+00
  0.00000000E+00  0.00000000E+00  0.00000000E+00
  0.00000000E+00  0.00000000E+00  0.00000000E+00
  0.00000000E+00  0.00000000E+00  0.00000000E+00
  0.00000000E+00  0.00000000E+00  0.00000000E+00
  0.00000000E+00  0.00000000E+00  0.00000000E+00
  0.00000000E+00  0.00000000E+00  0.00000000E+00
  0.00000000E+00  0.00000000E+00  0.00000000E+00
  0.00000000E+00  0.00000000E+00  0.00000000E+00
  0.00000000E+00  0.00000000E+00  0.00000000E+00
  0.00000000E+00  0.00000000E+00  0.00000000E+00
  0.00000000E+00  0.00000000E+00  0.00000000E+00
  0.00000000E+00  0.00000000E+00  0.00000000E+00
  0.00000000E+00  0.00000000E+00  0.00000000E+00
  0.00000000E+00  0.00000000E+00  0.00000000E+00
  0.00000000E+00  0.00000000E+00  0.00000000E+00
  0.00000000E+00  0.00000000E+00  0.00000000E+00
  0.00000000E+00  0.00000000E+00  0.00000000E+00
  0.00000000E+00  0.00000000E+00  0.00000000E+00
  0.00000000E+00  0.00000000E+00  0.00000000E+00
  0.00000000E+00  0.00000000E+00  0.00000000E+00
  0.00000000E+00  0.00000000E+00  0.00000000E+00
  0.00000000E+00  0.00000000E+00  0.00000000E+00
  0.00000000E+00  0.00000000E+00  0.00000000E+00
  0.00000000E+00  0.00000000E+00  0.00000000E+00
  0.00000000E+00  0.00000000E+00  0.00000000E+00
  0.00000000E+00  0.00000000E+00  0.00000000E+00
  0.00000000E+00  0.00000000E+00  0.00000000E+00
  0.00000000E+00  0.00000000E+00  0.00000000E+00
  0.00000000E+00  0.00000000E+00  0.00000000E+00
  0.00000000E+00  0.00000000E+00  0.00000000E+00
  0.00000000E+00  0.00000000E+00  0.00000000E+00
  0.00000000E+00  0.00000000E+00  0.00000000E+00
  0.00000000E+00  0.00000000E+00  0.00000000E+00
  0.00000000E+00  0.00000000E+00  0.00000000E+00
  0.00000000E+00  0.00000000E+00  0.00000000E+00
  0.00000000E+00  0.00000000E+00  0.00000000E+00
  0.00000000E+00  0.00000000E+00  0.00000000E+00
  0.00000000E+00  0.00000000E+00  0.00000000E+00
  0.00000000E+00  0.00000000E+00  0.00000000E+00
  0.00000000E+00  0.00000000E+00  0.00000000E+00
  0.00000000E+00  0.00000000E+00  0.00000000E+00
  0.00000000E+00  0.00000000E+00  0.00000000E+00
  0.00000000E+00  0.00000000E+00  0.00000000E+00
  0.00000000E+00  0.00000000E+00  0.00000000E+00
  0.00000000E+00  0.00000000E+00  0.00000000E+00
  0.00000000E+00  0.00000000E+00  0.00000000E+00
  0.00000000E+00  0.00000000E+00  0.00000000E+00
  0.00000000E+00  0.00000000E+00  0.00000000E+00
  0.00000000E+00  0.00000000E+00  0.00000000E+00
  0.00000000E+00  0.00000000E+00  0.00000000E+00
  0.00000000E+00  0.00000000E+00  0.00000000E+00
  0.00000000E+00  0.00000000E+00  0.00000000E+00
  0.00000000E+00  0.00000000E+00  0.00000000E+00
  0.00000000E+00  0.00000000E+00  0.00000000E+00
  0.00000000E+00  0.00000000E+00  0.00000000E+00
  0.00000000E+00  0.00000000E+00  0.00000000E+00
  0.00000000E+00  0.00000000E+00  0.00000000E+00
  0.00000000E+00  0.00000000E+00  0.00000000E+00
  0.00000000E+00  0.00000000E+00  0.00000000E+00
  0.00000000E+00  0.00000000E+00  0.00000000E+00
