#BCC aalvarado POSCAR generator         
    12.76000000000000     
     1.0010431148133274    0.0000638463699334   -0.0000481377401272
     0.0000638441979449    1.0013075502842912    0.0001693544306759
    -0.0000481288765835    0.0001693568257088    1.0010158891285506
   Ta   W 
    25   103
Direct
  0.6248956178482088  0.6270500712082248  0.3737193046355687
  0.6259033543617823  0.3746330518924851  0.3721592868006157
  0.3731880575999498  0.3752600513800317  0.3732778953774818
  0.7530665326378435  0.4998360236430744  0.5014220409484623
  0.5006021211572100  0.2498940272967294  0.5041895221675929
  0.6251079307832752  0.3755960549253011  0.8759242199505709
  0.8744693717195178  0.6260741539052265  0.1236364725713058
  0.6263001417178171  0.1254428857855868  0.1239376003222314
  0.6269432534306616  0.1243018667798329  0.3743519942995257
  0.3729036197890951  0.1241933421244119  0.3749078717931837
  0.1242793678126539  0.1238675448668896  0.3751617916237833
  0.1249827231336354  0.3756582452629518  0.1248264202166615
  0.1253068328076872  0.1238161333395853  0.6238012037516956
  0.1252946866688928  0.3765383710699129  0.6243800854744819
  0.1257783480739436  0.1234681268626206  0.8738902280301073
 -0.0006093401777413 -0.0015876487458045  0.0010250901958646
  0.7493149698713204 -0.0004992127366956  0.7498352221895206
  0.4996566303116655  0.7495780208351277 -0.0001727647599893
  0.5004177293509267 -0.0003328735023175  0.7503117950317383
  0.0004184478691852  0.5008216676338926  0.2513799374600258
  0.4991737133943868 -0.0034784906243215  0.2486432792795363
 -0.0026684580910348  0.2514067311870923  0.7506635752590461
  0.2518147363436636  0.2501760644943451 -0.0003871288900164
  0.4983849067054857  0.5006247754760208  0.5021839605204939
  0.6251416325743205  0.6274489409665495  0.6270691933339066
  0.6259230384581753  0.3749116022810733  0.6284520813023088
  0.3729857818650856  0.3756014550233470  0.6271802657804616
  0.3734839034459503  0.6260186196057325  0.3742962529374038
  0.3735690523547507  0.6264341253239366  0.6263516620808567
  0.7512507952889101  0.7509191443316623  0.7508337237272855
  0.7520713429033780  0.7518678790157204  0.5000009060964503
  0.7514216816244830  0.5005286113359249  0.7509805677456579
  0.4983898195185321  0.5003699348378211  0.7514024803178321
  0.4981891976418102  0.7514622000727504  0.5000774472080821
  0.4989251880758931  0.7509475488290441  0.7513046957810121
  0.7503594231242678  0.7517885246215865  0.2496161692956562
  0.7511175321069944  0.4999486509964704  0.2485827078246604
  0.4986752246012983  0.5017044072460614  0.2470776303222863
  0.4988562291271217  0.7505050422968098  0.2485600967440007
  0.7528961320160353  0.2499932599400654  0.2485292039116197
  0.4997569820908313  0.2501926647115245  0.2469960497527102
  0.7517520938767644  0.2492603144485100  0.5012967841405744
  0.2488586698185825  0.2498793221624523  0.2475247114263458
  0.2500852577912673  0.2506518077927990  0.5007505814442088
  0.2493024098411967  0.5027574043742935  0.2493947145480199
  0.2492398154658620  0.5030631519655081  0.5005185969086459
  0.7504264153519011  0.2491513818498099  0.7502563037301075
  0.5000603666267890  0.2491507467885563  0.7505847072139246
  0.2517812720606630  0.2512379788796591  0.7515128212670523
  0.2502122987918466  0.5021529020946560  0.7509474249015237
  0.2495201046571580  0.7499613275271454  0.2501191951431425
  0.2490453324301838  0.7500826558486096  0.5000664054440984
  0.2492343239838646  0.7495900426911436  0.7497895258143125
  0.8752798838975624  0.8730520599620352  0.8749118705404934
  0.8761629372208425  0.8741110118078383  0.6239265239935065
  0.8765548068939143  0.6261472836778066  0.6263242461727306
  0.8758085930276897  0.6250426275351425  0.8751108638454156
  0.6254799902474300  0.6241113882771737  0.8749571011803331
  0.6251189080094122  0.8738330275313054  0.6238002324561862
  0.6256513056237568  0.8740000515363584  0.8756910714143032
  0.8757002626310281  0.8753050710201440  0.3752807215304867
  0.8759588654568092  0.6269224364036093  0.3749645744160360
  0.6260694549708797  0.8741045836398184  0.3754005516133238
  0.8754283273451960  0.3734324467080384  0.3749449583101438
  0.8758306665236580  0.3753729160838372  0.6254595851451527
  0.8735723882150683  0.3765698577518610  0.8757698155566014
  0.3764864577600072  0.3764062413848567  0.8748774592167934
  0.3735674218242788  0.6246089438269804  0.8747498237788603
  0.3736100028257735  0.8735029996194720  0.3756905452331775
  0.3737732353308916  0.8737637907973946  0.6245034348393134
  0.3734357050404321  0.8742323490828026  0.8748175561965651
  0.8749294564733726  0.8743469536689519  0.1261702505576014
  0.6252454963072352  0.6244412851559835  0.1252059651313726
  0.6261188602522620  0.8748230515305290  0.1248456091335700
  0.8746454787242982  0.3746884605259530  0.1242972727929443
  0.6250273691580610  0.3749645148073651  0.1237120523860093
  0.3754788731040065  0.3762806687086529  0.1247644104309853
  0.3742306959459773  0.6246455525434421  0.1249426420985751
  0.3732129279591234  0.8738627607845518  0.1248521923666024
  0.8742488805722310  0.1253113514119129  0.1260632532375211
  0.8757454711993197  0.1242312943994084  0.3747595287270984
  0.3756285932874259  0.1245441659768236  0.1242314904657829
  0.8749718641067941  0.1244322689201468  0.6235060630493527
  0.6258888164393623  0.1248874367939444  0.6248063531762488
  0.3738670636074121  0.1241897793666487  0.6255947414289266
  0.1246553542800513  0.1245446403468212  0.1263501936374860
  0.1250670747658847  0.3747346421991273  0.3754494681558259
  0.1256525560856210  0.6259739581443663  0.1243027854291228
  0.1256072561075884  0.6265326594995008  0.3761004756097077
  0.1250131182680183  0.6255049103700331  0.6252417676139582
  0.8743153026530734  0.1255019255003298  0.8759621001562105
  0.6248987998683672  0.1266469296372674  0.8764909210775831
  0.3752329029768565  0.1248692734711212  0.8749321416638640
  0.1249304954888143  0.3773515387914105  0.8749830237823631
  0.1250249230320385  0.6257493305322747  0.8745839828635282
  0.1254285294298333  0.8737572739815749  0.1259693591342595
  0.1244279951253738  0.8742204054148572  0.3750623661550508
  0.1249454993546895  0.8738438515871668  0.6245781111255082
  0.1254453571955010  0.8731569385450872  0.8744420148258700
 -0.0014724540453808 -0.0020888593870729  0.7500251538544063
  0.0005400936356312  0.7493301966273918  0.7495737356458786
  0.0006839086887171  0.7508493632371626 -0.0011247471040864
  0.7490726727016382  0.7504035398730721 -0.0007498826477386
  0.7512294448530410 -0.0007130459300358 -0.0009786713955552
 -0.0013659217837777 -0.0023533619642421  0.4992822880631763
  0.0007168158125816  0.7504219258915746  0.5004861860620827
  0.7513495534324719 -0.0010032980699796  0.5008432830620930
  0.0000703315774597  0.5018497680126779  0.4998026252649411
  0.0000660450446171  0.5016001153217972  0.7506805594466969
  0.0001168599795024  0.5010225959609721 -0.0013098443404499
  0.7498360517051706  0.5003577456435567 -0.0005454214072681
  0.4994969319706300  0.5013558768617069  0.0001286187281528
  0.5002765058308699 -0.0017396875156142  0.5017157651052601
  0.4995277956196858 -0.0012342194212055 -0.0011389657944391
 -0.0005302850341508 -0.0010493041970134  0.2492842585146085
  0.0009979072681326  0.7508551706164569  0.2509610592154222
  0.7516522037212867 -0.0016427443544802  0.2499973546817883
 -0.0014820500933824  0.2499444889467646  0.2501875736430626
 -0.0023200573170350  0.2502924215791457  0.4994285938438144
 -0.0011587823904231  0.2495319950393924  0.0000803141961103
  0.7509074490322671  0.2502744622777256 -0.0001333955142870
  0.4992941736988937  0.2503928446880450 -0.0010177331170729
  0.2506745504634640  0.5013465733675060 -0.0011688766558769
  0.2499799897792130  0.7497806539192381 -0.0002105001822138
  0.2493436951915153 -0.0028152487766650  0.2486038977529582
  0.2497625347836681 -0.0036949565756107  0.5005587792774789
  0.2519724681760712 -0.0024715373391707  0.7499181636394311
  0.2499307304504497 -0.0012810158142500  0.0002965461156389
 
  0.00000000E+00  0.00000000E+00  0.00000000E+00
  0.00000000E+00  0.00000000E+00  0.00000000E+00
  0.00000000E+00  0.00000000E+00  0.00000000E+00
  0.00000000E+00  0.00000000E+00  0.00000000E+00
  0.00000000E+00  0.00000000E+00  0.00000000E+00
  0.00000000E+00  0.00000000E+00  0.00000000E+00
  0.00000000E+00  0.00000000E+00  0.00000000E+00
  0.00000000E+00  0.00000000E+00  0.00000000E+00
  0.00000000E+00  0.00000000E+00  0.00000000E+00
  0.00000000E+00  0.00000000E+00  0.00000000E+00
  0.00000000E+00  0.00000000E+00  0.00000000E+00
  0.00000000E+00  0.00000000E+00  0.00000000E+00
  0.00000000E+00  0.00000000E+00  0.00000000E+00
  0.00000000E+00  0.00000000E+00  0.00000000E+00
  0.00000000E+00  0.00000000E+00  0.00000000E+00
  0.00000000E+00  0.00000000E+00  0.00000000E+00
  0.00000000E+00  0.00000000E+00  0.00000000E+00
  0.00000000E+00  0.00000000E+00  0.00000000E+00
  0.00000000E+00  0.00000000E+00  0.00000000E+00
  0.00000000E+00  0.00000000E+00  0.00000000E+00
  0.00000000E+00  0.00000000E+00  0.00000000E+00
  0.00000000E+00  0.00000000E+00  0.00000000E+00
  0.00000000E+00  0.00000000E+00  0.00000000E+00
  0.00000000E+00  0.00000000E+00  0.00000000E+00
  0.00000000E+00  0.00000000E+00  0.00000000E+00
  0.00000000E+00  0.00000000E+00  0.00000000E+00
  0.00000000E+00  0.00000000E+00  0.00000000E+00
  0.00000000E+00  0.00000000E+00  0.00000000E+00
  0.00000000E+00  0.00000000E+00  0.00000000E+00
  0.00000000E+00  0.00000000E+00  0.00000000E+00
  0.00000000E+00  0.00000000E+00  0.00000000E+00
  0.00000000E+00  0.00000000E+00  0.00000000E+00
  0.00000000E+00  0.00000000E+00  0.00000000E+00
  0.00000000E+00  0.00000000E+00  0.00000000E+00
  0.00000000E+00  0.00000000E+00  0.00000000E+00
  0.00000000E+00  0.00000000E+00  0.00000000E+00
  0.00000000E+00  0.00000000E+00  0.00000000E+00
  0.00000000E+00  0.00000000E+00  0.00000000E+00
  0.00000000E+00  0.00000000E+00  0.00000000E+00
  0.00000000E+00  0.00000000E+00  0.00000000E+00
  0.00000000E+00  0.00000000E+00  0.00000000E+00
  0.00000000E+00  0.00000000E+00  0.00000000E+00
  0.00000000E+00  0.00000000E+00  0.00000000E+00
  0.00000000E+00  0.00000000E+00  0.00000000E+00
  0.00000000E+00  0.00000000E+00  0.00000000E+00
  0.00000000E+00  0.00000000E+00  0.00000000E+00
  0.00000000E+00  0.00000000E+00  0.00000000E+00
  0.00000000E+00  0.00000000E+00  0.00000000E+00
  0.00000000E+00  0.00000000E+00  0.00000000E+00
  0.00000000E+00  0.00000000E+00  0.00000000E+00
  0.00000000E+00  0.00000000E+00  0.00000000E+00
  0.00000000E+00  0.00000000E+00  0.00000000E+00
  0.00000000E+00  0.00000000E+00  0.00000000E+00
  0.00000000E+00  0.00000000E+00  0.00000000E+00
  0.00000000E+00  0.00000000E+00  0.00000000E+00
  0.00000000E+00  0.00000000E+00  0.00000000E+00
  0.00000000E+00  0.00000000E+00  0.00000000E+00
  0.00000000E+00  0.00000000E+00  0.00000000E+00
  0.00000000E+00  0.00000000E+00  0.00000000E+00
  0.00000000E+00  0.00000000E+00  0.00000000E+00
  0.00000000E+00  0.00000000E+00  0.00000000E+00
  0.00000000E+00  0.00000000E+00  0.00000000E+00
  0.00000000E+00  0.00000000E+00  0.00000000E+00
  0.00000000E+00  0.00000000E+00  0.00000000E+00
  0.00000000E+00  0.00000000E+00  0.00000000E+00
  0.00000000E+00  0.00000000E+00  0.00000000E+00
  0.00000000E+00  0.00000000E+00  0.00000000E+00
  0.00000000E+00  0.00000000E+00  0.00000000E+00
  0.00000000E+00  0.00000000E+00  0.00000000E+00
  0.00000000E+00  0.00000000E+00  0.00000000E+00
  0.00000000E+00  0.00000000E+00  0.00000000E+00
  0.00000000E+00  0.00000000E+00  0.00000000E+00
  0.00000000E+00  0.00000000E+00  0.00000000E+00
  0.00000000E+00  0.00000000E+00  0.00000000E+00
  0.00000000E+00  0.00000000E+00  0.00000000E+00
  0.00000000E+00  0.00000000E+00  0.00000000E+00
  0.00000000E+00  0.00000000E+00  0.00000000E+00
  0.00000000E+00  0.00000000E+00  0.00000000E+00
  0.00000000E+00  0.00000000E+00  0.00000000E+00
  0.00000000E+00  0.00000000E+00  0.00000000E+00
  0.00000000E+00  0.00000000E+00  0.00000000E+00
  0.00000000E+00  0.00000000E+00  0.00000000E+00
  0.00000000E+00  0.00000000E+00  0.00000000E+00
  0.00000000E+00  0.00000000E+00  0.00000000E+00
  0.00000000E+00  0.00000000E+00  0.00000000E+00
  0.00000000E+00  0.00000000E+00  0.00000000E+00
  0.00000000E+00  0.00000000E+00  0.00000000E+00
  0.00000000E+00  0.00000000E+00  0.00000000E+00
  0.00000000E+00  0.00000000E+00  0.00000000E+00
  0.00000000E+00  0.00000000E+00  0.00000000E+00
  0.00000000E+00  0.00000000E+00  0.00000000E+00
  0.00000000E+00  0.00000000E+00  0.00000000E+00
  0.00000000E+00  0.00000000E+00  0.00000000E+00
  0.00000000E+00  0.00000000E+00  0.00000000E+00
  0.00000000E+00  0.00000000E+00  0.00000000E+00
  0.00000000E+00  0.00000000E+00  0.00000000E+00
  0.00000000E+00  0.00000000E+00  0.00000000E+00
  0.00000000E+00  0.00000000E+00  0.00000000E+00
  0.00000000E+00  0.00000000E+00  0.00000000E+00
  0.00000000E+00  0.00000000E+00  0.00000000E+00
  0.00000000E+00  0.00000000E+00  0.00000000E+00
  0.00000000E+00  0.00000000E+00  0.00000000E+00
  0.00000000E+00  0.00000000E+00  0.00000000E+00
  0.00000000E+00  0.00000000E+00  0.00000000E+00
  0.00000000E+00  0.00000000E+00  0.00000000E+00
  0.00000000E+00  0.00000000E+00  0.00000000E+00
  0.00000000E+00  0.00000000E+00  0.00000000E+00
  0.00000000E+00  0.00000000E+00  0.00000000E+00
  0.00000000E+00  0.00000000E+00  0.00000000E+00
  0.00000000E+00  0.00000000E+00  0.00000000E+00
  0.00000000E+00  0.00000000E+00  0.00000000E+00
  0.00000000E+00  0.00000000E+00  0.00000000E+00
  0.00000000E+00  0.00000000E+00  0.00000000E+00
  0.00000000E+00  0.00000000E+00  0.00000000E+00
  0.00000000E+00  0.00000000E+00  0.00000000E+00
  0.00000000E+00  0.00000000E+00  0.00000000E+00
  0.00000000E+00  0.00000000E+00  0.00000000E+00
  0.00000000E+00  0.00000000E+00  0.00000000E+00
  0.00000000E+00  0.00000000E+00  0.00000000E+00
  0.00000000E+00  0.00000000E+00  0.00000000E+00
  0.00000000E+00  0.00000000E+00  0.00000000E+00
  0.00000000E+00  0.00000000E+00  0.00000000E+00
  0.00000000E+00  0.00000000E+00  0.00000000E+00
  0.00000000E+00  0.00000000E+00  0.00000000E+00
  0.00000000E+00  0.00000000E+00  0.00000000E+00
  0.00000000E+00  0.00000000E+00  0.00000000E+00
  0.00000000E+00  0.00000000E+00  0.00000000E+00
  0.00000000E+00  0.00000000E+00  0.00000000E+00
