#BCC aalvarado POSCAR generator         
    12.76000000000000     
     1.0083397952231439    0.0002258946742255    0.0000964610702177
     0.0002257076235776    1.0093782176301904   -0.0000469980263904
     0.0000963884667067   -0.0000470654623579    1.0089827838078262
   Ta   W 
    51    77
Direct
  0.5010677009169364  0.5012110303123564  0.5031333063777337
  0.6253343270668180  0.3721092114067572  0.3726482234716911
  0.3763420080325638  0.3764055749156626  0.3737821343150162
  0.3746655868134193  0.6230960386128250  0.3721843702003786
  0.7465710188420356  0.7489738928008463  0.4982013539192254
  0.7479661602048615  0.5005176294151987  0.5018368337114943
  0.7493993825586075  0.4986411535143530  0.7476899540390316
  0.4989421861552436  0.4993167303375375  0.7470449529267970
  0.4993884041613578  0.7504505555710649  0.4999570638760947
  0.4980438764696965  0.7515984014124828  0.7493493204264915
  0.2512606936851546  0.2477974302845445  0.2514018424631038
  0.2509468019080938  0.2516468552123691  0.5015530327853247
  0.2501261144993030  0.7527911080488999  0.2500998627664499
  0.2506497194346802  0.7502143628207375  0.5017533754334986
  0.2504216303572078  0.7523307639977788  0.7484311252182485
  0.8762757496090262  0.8769429660935520  0.6263761453928318
  0.8782618302209509  0.6283769554336749  0.6248880949020261
  0.8756132007112508  0.6299721522877683  0.8746242779161564
  0.6247023160996465  0.6274645747362183  0.8785142952973526
  0.6289606909637258  0.8782252291004506  0.6265252505029104
  0.8745790664794670  0.8752047924135847  0.3739506002756433
  0.8769013738002148  0.6249447749382947  0.3731347799966795
  0.8753665506423995  0.3738062938684893  0.3739775419164768
  0.8753251507376164  0.3692595072003663  0.8746727184590474
  0.6237750580680738  0.3706096307689810  0.8765262443681238
  0.3737141663129132  0.6239104962392641  0.8783900190769623
  0.8733784475473133  0.8749062552086055  0.1230217947762813
  0.6241052298154952  0.6262649508259809  0.1253524393349732
  0.6243021502438026  0.3727274967368385  0.1258991999178731
  0.3765590939589825  0.3751199259727199  0.1235410416290579
  0.3762445979241040  0.6245003288040128  0.1240117555289173
  0.8732780026483628  0.1257744830887473  0.3754524921849404
  0.3766382248238898  0.1231050272282978  0.1232469854119039
  0.8750697814771597  0.1245316535825106  0.6257520753264892
  0.6270339885435364  0.1262202910669804  0.6256051581979539
  0.3741249928220532  0.1263288019565694  0.6271102502173146
  0.1246239907199425  0.1245955499458416  0.1221236123934498
  0.1232079901546717  0.1240343892690376  0.3764483004726377
  0.1254126674745388  0.3745526396804716  0.1246479037612894
  0.1227685141439930  0.3771572180038186  0.3753949878613422
  0.1237700571560604  0.1245956967090270  0.6272422803446959
  0.1255472775345953  0.6251295369257217  0.1244515015551785
  0.3738860751975874  0.1256006440123079  0.8763614161515563
  0.1261052700239674  0.6267014879428384  0.8758667133494256
  0.1235859435777351  0.8765266016566543  0.3759615653076037
  0.0024551437907608  0.4978218789768564  0.7484508325019683
 -0.0015298924218641  0.4983569111734290  0.0004491571127360
  0.7531380539396780  0.4988740859354491  0.0016665247793925
  0.4987859526874439 -0.0008902820990017  0.4968903843458261
  0.4999331473960437 -0.0015077110168587  0.7531529155534854
 -0.0011612977127965  0.0001599286600282  0.2461987155662570
  0.0009777149940187  0.7496185169659213  0.2482797441351267
  0.7467993020764372  0.0006046732299388  0.2474251374733648
 -0.0011292269276503  0.5009882213077318  0.2487354883316163
  0.5010319660451219 -0.0011236356933365  0.2499903460020066
  0.0009068767229936  0.2496373102781945  0.7515204307014289
  0.7509962193875412  0.2452128165088387  0.0009419892146514
  0.2490290471305789  0.2493965199878522 -0.0029507031244912
  0.6260636611321393  0.6265513587314120  0.6265552405233235
  0.6250054676643212  0.6248596456868506  0.3704157648950118
  0.6247222542763743  0.3703423190902040  0.6249413008944165
  0.3738098102830225  0.3739652614421867  0.6262463056413252
  0.3722081450533657  0.6233523811398761  0.6253569836473680
  0.7494580650866642  0.7520024416337416  0.7511797734945627
  0.7480299697501585  0.7506975354696889  0.2492838617232775
  0.7513999973633548  0.5002256074861811  0.2489491162654534
  0.5015294815498292  0.5006504979511633  0.2511227061818219
  0.5003709506691979  0.7534269380667658  0.2500882372695326
  0.7496242512286628  0.2469252151551186  0.2478421313798743
  0.5013852222200544  0.2455438419570451  0.2501168887605736
  0.7491416339957393  0.2508299615381990  0.5005325438153040
  0.4998134960077628  0.2494015122417919  0.5000672980508426
  0.2488435442957468  0.5011681102182796  0.2506126767467417
  0.2494598359941877  0.5013709133999624  0.5030183039324525
  0.7504564270881813  0.2487428628929484  0.7508826548105237
  0.4993943230800255  0.2509277660071347  0.7506217244305149
  0.2487400095625030  0.2521855066771045  0.7508986513639824
  0.2501145693920973  0.4987819399655681  0.7486270578807409
  0.8755688792705403  0.8766993775195990  0.8756324424584412
  0.6268329967904783  0.8760890250406992  0.8780714782590388
  0.6253569255856364  0.8764686934101120  0.3712212324779649
  0.8764628255625529  0.3717617313082291  0.6239150404345369
  0.3738833576496392  0.3734389454385694  0.8756465532789965
  0.3749116077427787  0.8767525169560954  0.3721644559370397
  0.3728285648027758  0.8778586743323149  0.6255548043523288
  0.3735496678900958  0.8766897006081790  0.8786075497282270
  0.8750165099676896  0.6270677857003970  0.1265313388075435
  0.6248732322153563  0.8756426400814972  0.1246255889505025
  0.8749231412481610  0.3721734045258696  0.1264043166277101
  0.3764022561632996  0.8761089985364285  0.1239450806750838
  0.8734512633105345  0.1244663048905802  0.1234911319960088
  0.6253514934963471  0.1236461527866128  0.1248719368573791
  0.6257252003137113  0.1249638968333565  0.3734471714386049
  0.3763249048867769  0.1243633073796273  0.3741364357874329
  0.1253074951458694  0.3749373288895619  0.6254401113539116
  0.1235947538496679  0.6243070390041211  0.3748863130502623
  0.1243563715378603  0.6246034162206668  0.6246142680399738
  0.8750480389034276  0.1236532339862880  0.8754550937370941
  0.6259441860937284  0.1243981161295194  0.8768953360939594
  0.1243474762805488  0.1242246433671277  0.8750735671192782
  0.1267360919147824  0.3724711166461741  0.8744631334788239
  0.1248234838447066  0.8754224681122560  0.1225068296751494
  0.1229201254645426  0.8773482292611143  0.6258922362760695
  0.1239535940490308  0.8769159970000141  0.8756026519480443
 -0.0004765310987778  0.0001012563242900 -0.0023743115753634
  0.0009363199645104  0.0001211058222349  0.7533094415050110
  0.0028755772381576  0.7528020305676570  0.7505807605790722
  0.0002047401519886  0.7527588069258210 -0.0002836054352727
  0.7501104707832954  0.7532412372581215  0.0008837619316111
  0.7509125440438914  0.0008785930250240  0.7548286346094449
  0.7493471847986570  0.0005168377052746 -0.0003378385723476
  0.0008495315145764 -0.0003443095729164  0.5013032633877980
  0.0029479056790946  0.7494700556773565  0.5007574257202754
  0.7478857841727400  0.0005218067859033  0.4979962311759593
  0.0016903480391332  0.5005517142536000  0.5014955160106155
  0.4996431534142584  0.4984837168994319 -0.0012640629227615
  0.4998969220397590  0.7542808209827442  0.0005424486371506
  0.5016791196499026 -0.0014927107840196  0.0011102454655392
 -0.0020794530444895  0.2494288581446664  0.2474263658699223
 -0.0001775877861403  0.2520171279877486  0.5026404745310399
 -0.0011200102611556  0.2475961231561208 -0.0017458037411950
  0.5011846489726439  0.2469639264794773 -0.0008407500255672
  0.2491769065340946  0.4982259431463282 -0.0022983299410703
  0.2499515631089727  0.7539909044340173  0.0000135998916187
  0.2520961596183416 -0.0015297134721368  0.2491934211667582
  0.2518837250407730 -0.0011044424434775  0.5007585514866166
  0.2487580986793360 -0.0014281234870494  0.7520229292446594
  0.2492812514251466 -0.0018162511085326 -0.0010628458976049
 
  0.00000000E+00  0.00000000E+00  0.00000000E+00
  0.00000000E+00  0.00000000E+00  0.00000000E+00
  0.00000000E+00  0.00000000E+00  0.00000000E+00
  0.00000000E+00  0.00000000E+00  0.00000000E+00
  0.00000000E+00  0.00000000E+00  0.00000000E+00
  0.00000000E+00  0.00000000E+00  0.00000000E+00
  0.00000000E+00  0.00000000E+00  0.00000000E+00
  0.00000000E+00  0.00000000E+00  0.00000000E+00
  0.00000000E+00  0.00000000E+00  0.00000000E+00
  0.00000000E+00  0.00000000E+00  0.00000000E+00
  0.00000000E+00  0.00000000E+00  0.00000000E+00
  0.00000000E+00  0.00000000E+00  0.00000000E+00
  0.00000000E+00  0.00000000E+00  0.00000000E+00
  0.00000000E+00  0.00000000E+00  0.00000000E+00
  0.00000000E+00  0.00000000E+00  0.00000000E+00
  0.00000000E+00  0.00000000E+00  0.00000000E+00
  0.00000000E+00  0.00000000E+00  0.00000000E+00
  0.00000000E+00  0.00000000E+00  0.00000000E+00
  0.00000000E+00  0.00000000E+00  0.00000000E+00
  0.00000000E+00  0.00000000E+00  0.00000000E+00
  0.00000000E+00  0.00000000E+00  0.00000000E+00
  0.00000000E+00  0.00000000E+00  0.00000000E+00
  0.00000000E+00  0.00000000E+00  0.00000000E+00
  0.00000000E+00  0.00000000E+00  0.00000000E+00
  0.00000000E+00  0.00000000E+00  0.00000000E+00
  0.00000000E+00  0.00000000E+00  0.00000000E+00
  0.00000000E+00  0.00000000E+00  0.00000000E+00
  0.00000000E+00  0.00000000E+00  0.00000000E+00
  0.00000000E+00  0.00000000E+00  0.00000000E+00
  0.00000000E+00  0.00000000E+00  0.00000000E+00
  0.00000000E+00  0.00000000E+00  0.00000000E+00
  0.00000000E+00  0.00000000E+00  0.00000000E+00
  0.00000000E+00  0.00000000E+00  0.00000000E+00
  0.00000000E+00  0.00000000E+00  0.00000000E+00
  0.00000000E+00  0.00000000E+00  0.00000000E+00
  0.00000000E+00  0.00000000E+00  0.00000000E+00
  0.00000000E+00  0.00000000E+00  0.00000000E+00
  0.00000000E+00  0.00000000E+00  0.00000000E+00
  0.00000000E+00  0.00000000E+00  0.00000000E+00
  0.00000000E+00  0.00000000E+00  0.00000000E+00
  0.00000000E+00  0.00000000E+00  0.00000000E+00
  0.00000000E+00  0.00000000E+00  0.00000000E+00
  0.00000000E+00  0.00000000E+00  0.00000000E+00
  0.00000000E+00  0.00000000E+00  0.00000000E+00
  0.00000000E+00  0.00000000E+00  0.00000000E+00
  0.00000000E+00  0.00000000E+00  0.00000000E+00
  0.00000000E+00  0.00000000E+00  0.00000000E+00
  0.00000000E+00  0.00000000E+00  0.00000000E+00
  0.00000000E+00  0.00000000E+00  0.00000000E+00
  0.00000000E+00  0.00000000E+00  0.00000000E+00
  0.00000000E+00  0.00000000E+00  0.00000000E+00
  0.00000000E+00  0.00000000E+00  0.00000000E+00
  0.00000000E+00  0.00000000E+00  0.00000000E+00
  0.00000000E+00  0.00000000E+00  0.00000000E+00
  0.00000000E+00  0.00000000E+00  0.00000000E+00
  0.00000000E+00  0.00000000E+00  0.00000000E+00
  0.00000000E+00  0.00000000E+00  0.00000000E+00
  0.00000000E+00  0.00000000E+00  0.00000000E+00
  0.00000000E+00  0.00000000E+00  0.00000000E+00
  0.00000000E+00  0.00000000E+00  0.00000000E+00
  0.00000000E+00  0.00000000E+00  0.00000000E+00
  0.00000000E+00  0.00000000E+00  0.00000000E+00
  0.00000000E+00  0.00000000E+00  0.00000000E+00
  0.00000000E+00  0.00000000E+00  0.00000000E+00
  0.00000000E+00  0.00000000E+00  0.00000000E+00
  0.00000000E+00  0.00000000E+00  0.00000000E+00
  0.00000000E+00  0.00000000E+00  0.00000000E+00
  0.00000000E+00  0.00000000E+00  0.00000000E+00
  0.00000000E+00  0.00000000E+00  0.00000000E+00
  0.00000000E+00  0.00000000E+00  0.00000000E+00
  0.00000000E+00  0.00000000E+00  0.00000000E+00
  0.00000000E+00  0.00000000E+00  0.00000000E+00
  0.00000000E+00  0.00000000E+00  0.00000000E+00
  0.00000000E+00  0.00000000E+00  0.00000000E+00
  0.00000000E+00  0.00000000E+00  0.00000000E+00
  0.00000000E+00  0.00000000E+00  0.00000000E+00
  0.00000000E+00  0.00000000E+00  0.00000000E+00
  0.00000000E+00  0.00000000E+00  0.00000000E+00
  0.00000000E+00  0.00000000E+00  0.00000000E+00
  0.00000000E+00  0.00000000E+00  0.00000000E+00
  0.00000000E+00  0.00000000E+00  0.00000000E+00
  0.00000000E+00  0.00000000E+00  0.00000000E+00
  0.00000000E+00  0.00000000E+00  0.00000000E+00
  0.00000000E+00  0.00000000E+00  0.00000000E+00
  0.00000000E+00  0.00000000E+00  0.00000000E+00
  0.00000000E+00  0.00000000E+00  0.00000000E+00
  0.00000000E+00  0.00000000E+00  0.00000000E+00
  0.00000000E+00  0.00000000E+00  0.00000000E+00
  0.00000000E+00  0.00000000E+00  0.00000000E+00
  0.00000000E+00  0.00000000E+00  0.00000000E+00
  0.00000000E+00  0.00000000E+00  0.00000000E+00
  0.00000000E+00  0.00000000E+00  0.00000000E+00
  0.00000000E+00  0.00000000E+00  0.00000000E+00
  0.00000000E+00  0.00000000E+00  0.00000000E+00
  0.00000000E+00  0.00000000E+00  0.00000000E+00
  0.00000000E+00  0.00000000E+00  0.00000000E+00
  0.00000000E+00  0.00000000E+00  0.00000000E+00
  0.00000000E+00  0.00000000E+00  0.00000000E+00
  0.00000000E+00  0.00000000E+00  0.00000000E+00
  0.00000000E+00  0.00000000E+00  0.00000000E+00
  0.00000000E+00  0.00000000E+00  0.00000000E+00
  0.00000000E+00  0.00000000E+00  0.00000000E+00
  0.00000000E+00  0.00000000E+00  0.00000000E+00
  0.00000000E+00  0.00000000E+00  0.00000000E+00
  0.00000000E+00  0.00000000E+00  0.00000000E+00
  0.00000000E+00  0.00000000E+00  0.00000000E+00
  0.00000000E+00  0.00000000E+00  0.00000000E+00
  0.00000000E+00  0.00000000E+00  0.00000000E+00
  0.00000000E+00  0.00000000E+00  0.00000000E+00
  0.00000000E+00  0.00000000E+00  0.00000000E+00
  0.00000000E+00  0.00000000E+00  0.00000000E+00
  0.00000000E+00  0.00000000E+00  0.00000000E+00
  0.00000000E+00  0.00000000E+00  0.00000000E+00
  0.00000000E+00  0.00000000E+00  0.00000000E+00
  0.00000000E+00  0.00000000E+00  0.00000000E+00
  0.00000000E+00  0.00000000E+00  0.00000000E+00
  0.00000000E+00  0.00000000E+00  0.00000000E+00
  0.00000000E+00  0.00000000E+00  0.00000000E+00
  0.00000000E+00  0.00000000E+00  0.00000000E+00
  0.00000000E+00  0.00000000E+00  0.00000000E+00
  0.00000000E+00  0.00000000E+00  0.00000000E+00
  0.00000000E+00  0.00000000E+00  0.00000000E+00
  0.00000000E+00  0.00000000E+00  0.00000000E+00
  0.00000000E+00  0.00000000E+00  0.00000000E+00
  0.00000000E+00  0.00000000E+00  0.00000000E+00
  0.00000000E+00  0.00000000E+00  0.00000000E+00
  0.00000000E+00  0.00000000E+00  0.00000000E+00
  0.00000000E+00  0.00000000E+00  0.00000000E+00
