#BCC aalvarado POSCAR generator         
    12.76000000000000     
     1.0277762331953539    0.0003590449314557   -0.0002270081546373
     0.0003591677658288    1.0272987982290120   -0.0001580745051432
    -0.0002270578442011   -0.0001580895754163    1.0272274013558989
   Ta   W 
   102    26
Direct
  0.6261430485766908  0.6198005168167198  0.6255058818970615
  0.6267137522011371  0.6216204623882539  0.3793023212972889
  0.6260982348639650  0.3787841469548808  0.3787913300414107
  0.3779231766119355  0.3753728364279436  0.3759280242088736
  0.6257495805749348  0.3790103998841212  0.6253270912019294
  0.3791276407791242  0.3766834806149407  0.6251625180245086
  0.3764833684702178  0.6235428979126266  0.3767446727730605
  0.3789877401801360  0.6220199860918945  0.6250511296626091
  0.7506176381787463  0.7529607619317531  0.7495827858054382
  0.7529006190050707  0.7528728553899190  0.5029314244878119
  0.4995196234385959  0.7520927021691010  0.5012301987629910
  0.5010820846999775  0.7536317643560368  0.7521928020794276
  0.7496732332995448  0.7490760704047613  0.2507728446186925
  0.7532199758223278  0.4977084195345193  0.2467294463921252
  0.4989101208679584  0.4993766375126651  0.2475762987755753
  0.4983737133884082  0.7500122755002888  0.2498903975224737
  0.7512221550234254  0.2501484208956208  0.2500468353799308
  0.5003017934019676  0.2482630368183132  0.2523909296926752
  0.7476118877574248  0.2460545048847302  0.4982608216648340
  0.5014067571333636  0.2452533722034551  0.4986290733957825
  0.2465270180947904  0.2507217321704307  0.2501331194734753
  0.2493070622075142  0.2529668442506468  0.4977762155432856
  0.2480442762492021  0.4984273817677800  0.2526726531123457
  0.2479227745736788  0.4975661872715790  0.4977689009307740
  0.7505581876375548  0.2497760292829486  0.7494558669106061
  0.4985512536597854  0.2477906393689298  0.7485070433201189
  0.2481292948924536  0.2499569728721961  0.7500934830488778
  0.2481389522767265  0.5002803050323045  0.7480038436751750
  0.2490024219204575  0.7507398748124211  0.2535734486753133
  0.2480635801195761  0.7494619825510860  0.4989482750197664
  0.2499504382655161  0.7482831584117317  0.7481166788448176
  0.8778644660973853  0.8751684782565956  0.8771854707188091
  0.8728637653911049  0.6200364264910432  0.6235976333281794
  0.8751664153778963  0.6258965950421260  0.8747052937283327
  0.6257256728058395  0.6206034058991411  0.8705335665468534
  0.6256012307791023  0.8767221007386765  0.6254759440237013
  0.8783421186437939  0.8743795028147714  0.3705791928396615
  0.8764052400113469  0.6236127976263421  0.3765365686822534
  0.6253991654880333  0.8727511595190940  0.3754254803755668
  0.8752158510480068  0.3754452339501625  0.3803873787771793
  0.8742923108202471  0.3764423328108750  0.6222407399544292
  0.8733425905596612  0.3764463388046853  0.8712434636970716
  0.6231724470798781  0.3761359990519139  0.8721587686651473
  0.3753963605753322  0.3745193697867530  0.8767772233650591
  0.3736186992301501  0.6242650459650998  0.8759090518773213
  0.3713456754176643  0.8781522824966054  0.3748127638661831
  0.3715993088160273  0.8785135830461215  0.6253413524548995
  0.3687513427812656  0.8767772517616639  0.8767092136065856
  0.8814656012197903  0.8745781901357188  0.1271038537801838
  0.8797099387650523  0.6303685934452834  0.1254807162092106
  0.6253866151909274  0.6250049577593807  0.1249509013009907
  0.6245100199418496  0.8754968197251843  0.1267514469632310
  0.6214879759325672  0.3724806289757326  0.1229503263742540
  0.3733872858454588  0.3727576262871328  0.1206065922258463
  0.3702017341988063  0.6260720486953539  0.1219634429333984
  0.3687818239037099  0.8773483614071957  0.1242190101006028
  0.8770507962385048  0.1216830283623076  0.1274563159829785
  0.6227336334545925  0.1272580021721934  0.1216520115508034
  0.8809256266312770  0.1246491634081408  0.3745843782998201
  0.3720351038406868  0.1251356891162855  0.1219847164919880
  0.3687387330064016  0.1217938887627572  0.3738381500255824
  0.8759929274547458  0.1263731231812377  0.6242880878466759
  0.6274005378385215  0.1233257393136197  0.6284882267594278
  0.3706066969760155  0.1219369927758393  0.6254847447631849
  0.1241734558299946  0.1218576617625610  0.3747476082789392
  0.1302126212683616  0.3749588582142167  0.1209296599287042
  0.1255564394048933  0.1239602494323071  0.6225706360303893
  0.1207843403390492  0.3736422672473582  0.6229570126703790
  0.1248265058556190  0.6290090258145704  0.1232826945913800
  0.1202814005874396  0.6255783133530791  0.3743424411014509
  0.1218924929365251  0.6235606684729611  0.6226345885137360
  0.8732228752327944  0.1235663536121231  0.8735022091925423
  0.6242781810256561  0.1276963444913367  0.8754070276450845
  0.3726500915723891  0.1251363388372917  0.8779704405898502
  0.1287919813492036  0.3754493695349116  0.8779870728099095
  0.1258439306990357  0.6277184576496827  0.8799249117210189
  0.1249402797672882  0.8755791527594533  0.1249948252273772
  0.1287792460259328  0.8784676492856144  0.6262896298292502
  0.1271364238000560  0.8750213386504979  0.8787610393775899
  0.0026018136661705  0.0051662809285970 -0.0007766487054419
 -0.0001090454171592  0.0001396177355706  0.7503656857244824
 -0.0013199470794589  0.7521365056358037  0.7474143328992708
  0.7474424105779761  0.7523038835084743 -0.0022441140805680
  0.7488883848402238 -0.0013652532042152 -0.0001985725233962
 -0.0010557208917505 -0.0045513957208874  0.5014675810874192
 -0.0001926513162013  0.7540207415492202  0.5016297095097780
  0.7513409082369122 -0.0004551727204736  0.4991547270156100
  0.0022843697655013  0.5004691017421362  0.7520372477495830
 -0.0022710373054116  0.4971754008362164  0.0016690353275280
  0.7527404017388225  0.4984753516123074  0.0029630336209065
  0.5006510524620819  0.5019544778407834  0.0010146018868476
  0.5021487756459877  0.7520109924148904 -0.0022149676956692
  0.5020681793430775  0.0011717963864139  0.4989146474199858
  0.5007911113598106 -0.0014840426330010  0.7526152840499852
  0.5014351508668595 -0.0030551109267827 -0.0017471915518076
  0.7479926070783265  0.0022615481475286  0.2516315209829049
  0.0007980072341772  0.4956471648813555  0.2480458590137627
  0.5008938603114498  0.0020668759675711  0.2509065522703025
  0.0023800011455878  0.2520073024320546  0.2471856760298208
  0.0023020190038687  0.2477762572717135  0.7527811481164824
  0.0002652629786348  0.2487985052468752  0.0014026977222744
  0.7535818554768918  0.2518972494821720  0.0016703704436427
  0.4993935480713228  0.2498423949347973 -0.0005861776731410
  0.2471213779705956  0.2474545660855196 -0.0001875692320285
  0.2499196609769277  0.5001261074366913 -0.0000551565823996
  0.2501686637342244  0.7515142260381215  0.0006231464769188
  0.2470902757411251  0.0003939989148187  0.2490147078485998
  0.2475814481553287 -0.0008235702782928  0.4985137424778682
  0.2480286679609623  0.0017193309639167  0.7522667682130365
  0.2470153620195711  0.0031261044531241  0.0009121541204904
  0.4996785191689899  0.4994734099303782  0.4996182269247120
  0.7509149488289921  0.4996840146583927  0.4994837446860542
  0.7511639136868798  0.5000553075428568  0.7506165516558678
  0.4988411187976520  0.4997473147174893  0.7510674448859778
  0.8748904333309563  0.8763690949991515  0.6262973852474378
  0.6262129874187002  0.8764271451025515  0.8738764985368571
  0.8763637987936718  0.3742636122646140  0.1256021605039462
  0.6255910699232213  0.1251696059022294  0.3748309891451973
  0.1272702594519432  0.1225947214134513  0.1256981914959900
  0.1219673821648721  0.3738368549891407  0.3758825250090706
  0.1282592746845066  0.1240341936108899  0.8760806606378075
  0.1245345467322867  0.8772578617233530  0.3718965221453563
 -0.0001178734184621  0.7512673493576979 -0.0003029515087651
  0.7508576033393544 -0.0019696011170335  0.7501989965253518
  0.0014473714148324  0.4995243872618785  0.4980415874333810
  0.0026419735900779  0.0008262146607349  0.2497287763066383
  0.0021938543853730  0.7506944353880558  0.2521896456676835
  0.0011626621256276  0.2492333774435538  0.4981830308763177
 
  0.00000000E+00  0.00000000E+00  0.00000000E+00
  0.00000000E+00  0.00000000E+00  0.00000000E+00
  0.00000000E+00  0.00000000E+00  0.00000000E+00
  0.00000000E+00  0.00000000E+00  0.00000000E+00
  0.00000000E+00  0.00000000E+00  0.00000000E+00
  0.00000000E+00  0.00000000E+00  0.00000000E+00
  0.00000000E+00  0.00000000E+00  0.00000000E+00
  0.00000000E+00  0.00000000E+00  0.00000000E+00
  0.00000000E+00  0.00000000E+00  0.00000000E+00
  0.00000000E+00  0.00000000E+00  0.00000000E+00
  0.00000000E+00  0.00000000E+00  0.00000000E+00
  0.00000000E+00  0.00000000E+00  0.00000000E+00
  0.00000000E+00  0.00000000E+00  0.00000000E+00
  0.00000000E+00  0.00000000E+00  0.00000000E+00
  0.00000000E+00  0.00000000E+00  0.00000000E+00
  0.00000000E+00  0.00000000E+00  0.00000000E+00
  0.00000000E+00  0.00000000E+00  0.00000000E+00
  0.00000000E+00  0.00000000E+00  0.00000000E+00
  0.00000000E+00  0.00000000E+00  0.00000000E+00
  0.00000000E+00  0.00000000E+00  0.00000000E+00
  0.00000000E+00  0.00000000E+00  0.00000000E+00
  0.00000000E+00  0.00000000E+00  0.00000000E+00
  0.00000000E+00  0.00000000E+00  0.00000000E+00
  0.00000000E+00  0.00000000E+00  0.00000000E+00
  0.00000000E+00  0.00000000E+00  0.00000000E+00
  0.00000000E+00  0.00000000E+00  0.00000000E+00
  0.00000000E+00  0.00000000E+00  0.00000000E+00
  0.00000000E+00  0.00000000E+00  0.00000000E+00
  0.00000000E+00  0.00000000E+00  0.00000000E+00
  0.00000000E+00  0.00000000E+00  0.00000000E+00
  0.00000000E+00  0.00000000E+00  0.00000000E+00
  0.00000000E+00  0.00000000E+00  0.00000000E+00
  0.00000000E+00  0.00000000E+00  0.00000000E+00
  0.00000000E+00  0.00000000E+00  0.00000000E+00
  0.00000000E+00  0.00000000E+00  0.00000000E+00
  0.00000000E+00  0.00000000E+00  0.00000000E+00
  0.00000000E+00  0.00000000E+00  0.00000000E+00
  0.00000000E+00  0.00000000E+00  0.00000000E+00
  0.00000000E+00  0.00000000E+00  0.00000000E+00
  0.00000000E+00  0.00000000E+00  0.00000000E+00
  0.00000000E+00  0.00000000E+00  0.00000000E+00
  0.00000000E+00  0.00000000E+00  0.00000000E+00
  0.00000000E+00  0.00000000E+00  0.00000000E+00
  0.00000000E+00  0.00000000E+00  0.00000000E+00
  0.00000000E+00  0.00000000E+00  0.00000000E+00
  0.00000000E+00  0.00000000E+00  0.00000000E+00
  0.00000000E+00  0.00000000E+00  0.00000000E+00
  0.00000000E+00  0.00000000E+00  0.00000000E+00
  0.00000000E+00  0.00000000E+00  0.00000000E+00
  0.00000000E+00  0.00000000E+00  0.00000000E+00
  0.00000000E+00  0.00000000E+00  0.00000000E+00
  0.00000000E+00  0.00000000E+00  0.00000000E+00
  0.00000000E+00  0.00000000E+00  0.00000000E+00
  0.00000000E+00  0.00000000E+00  0.00000000E+00
  0.00000000E+00  0.00000000E+00  0.00000000E+00
  0.00000000E+00  0.00000000E+00  0.00000000E+00
  0.00000000E+00  0.00000000E+00  0.00000000E+00
  0.00000000E+00  0.00000000E+00  0.00000000E+00
  0.00000000E+00  0.00000000E+00  0.00000000E+00
  0.00000000E+00  0.00000000E+00  0.00000000E+00
  0.00000000E+00  0.00000000E+00  0.00000000E+00
  0.00000000E+00  0.00000000E+00  0.00000000E+00
  0.00000000E+00  0.00000000E+00  0.00000000E+00
  0.00000000E+00  0.00000000E+00  0.00000000E+00
  0.00000000E+00  0.00000000E+00  0.00000000E+00
  0.00000000E+00  0.00000000E+00  0.00000000E+00
  0.00000000E+00  0.00000000E+00  0.00000000E+00
  0.00000000E+00  0.00000000E+00  0.00000000E+00
  0.00000000E+00  0.00000000E+00  0.00000000E+00
  0.00000000E+00  0.00000000E+00  0.00000000E+00
  0.00000000E+00  0.00000000E+00  0.00000000E+00
  0.00000000E+00  0.00000000E+00  0.00000000E+00
  0.00000000E+00  0.00000000E+00  0.00000000E+00
  0.00000000E+00  0.00000000E+00  0.00000000E+00
  0.00000000E+00  0.00000000E+00  0.00000000E+00
  0.00000000E+00  0.00000000E+00  0.00000000E+00
  0.00000000E+00  0.00000000E+00  0.00000000E+00
  0.00000000E+00  0.00000000E+00  0.00000000E+00
  0.00000000E+00  0.00000000E+00  0.00000000E+00
  0.00000000E+00  0.00000000E+00  0.00000000E+00
  0.00000000E+00  0.00000000E+00  0.00000000E+00
  0.00000000E+00  0.00000000E+00  0.00000000E+00
  0.00000000E+00  0.00000000E+00  0.00000000E+00
  0.00000000E+00  0.00000000E+00  0.00000000E+00
  0.00000000E+00  0.00000000E+00  0.00000000E+00
  0.00000000E+00  0.00000000E+00  0.00000000E+00
  0.00000000E+00  0.00000000E+00  0.00000000E+00
  0.00000000E+00  0.00000000E+00  0.00000000E+00
  0.00000000E+00  0.00000000E+00  0.00000000E+00
  0.00000000E+00  0.00000000E+00  0.00000000E+00
  0.00000000E+00  0.00000000E+00  0.00000000E+00
  0.00000000E+00  0.00000000E+00  0.00000000E+00
  0.00000000E+00  0.00000000E+00  0.00000000E+00
  0.00000000E+00  0.00000000E+00  0.00000000E+00
  0.00000000E+00  0.00000000E+00  0.00000000E+00
  0.00000000E+00  0.00000000E+00  0.00000000E+00
  0.00000000E+00  0.00000000E+00  0.00000000E+00
  0.00000000E+00  0.00000000E+00  0.00000000E+00
  0.00000000E+00  0.00000000E+00  0.00000000E+00
  0.00000000E+00  0.00000000E+00  0.00000000E+00
  0.00000000E+00  0.00000000E+00  0.00000000E+00
  0.00000000E+00  0.00000000E+00  0.00000000E+00
  0.00000000E+00  0.00000000E+00  0.00000000E+00
  0.00000000E+00  0.00000000E+00  0.00000000E+00
  0.00000000E+00  0.00000000E+00  0.00000000E+00
  0.00000000E+00  0.00000000E+00  0.00000000E+00
  0.00000000E+00  0.00000000E+00  0.00000000E+00
  0.00000000E+00  0.00000000E+00  0.00000000E+00
  0.00000000E+00  0.00000000E+00  0.00000000E+00
  0.00000000E+00  0.00000000E+00  0.00000000E+00
  0.00000000E+00  0.00000000E+00  0.00000000E+00
  0.00000000E+00  0.00000000E+00  0.00000000E+00
  0.00000000E+00  0.00000000E+00  0.00000000E+00
  0.00000000E+00  0.00000000E+00  0.00000000E+00
  0.00000000E+00  0.00000000E+00  0.00000000E+00
  0.00000000E+00  0.00000000E+00  0.00000000E+00
  0.00000000E+00  0.00000000E+00  0.00000000E+00
  0.00000000E+00  0.00000000E+00  0.00000000E+00
  0.00000000E+00  0.00000000E+00  0.00000000E+00
  0.00000000E+00  0.00000000E+00  0.00000000E+00
  0.00000000E+00  0.00000000E+00  0.00000000E+00
  0.00000000E+00  0.00000000E+00  0.00000000E+00
  0.00000000E+00  0.00000000E+00  0.00000000E+00
  0.00000000E+00  0.00000000E+00  0.00000000E+00
  0.00000000E+00  0.00000000E+00  0.00000000E+00
  0.00000000E+00  0.00000000E+00  0.00000000E+00
  0.00000000E+00  0.00000000E+00  0.00000000E+00
  0.00000000E+00  0.00000000E+00  0.00000000E+00
