#generated using str2pos                
    1.000000000000000     
    12.7783826856777676    0.0003012495835457    0.0004749749079200
     0.0003011504391004   12.7769832944715862   -0.0010423704349209
     0.0004747703136497   -0.0010425524141589   12.7754226179715840
   Ta   W 
    26   102
Direct
  0.2484111125644033  0.2488163676255263  0.2508660462405700
  0.0002425626683198  0.2493756882385086  0.2499753659669942
  0.3756912779506694  0.3753999393338153  0.1232941996065752
  0.7519587709550398  0.5019999696851783  0.2497439268013797
  0.6239783415337996  0.3742538965796752  0.1240866234233585
  0.1245292246159056  0.6256735004233351  0.1243759259914536
  0.5008197024122373  0.7498225346267293  0.2492270630012793
  0.2498451014272159  0.2504964794219198  0.5001007913622227
  0.7499678490893131  0.2497416638178229  0.4999296998789223
  0.2496690897664385  0.4995492620075331  0.5005355429334540
  0.6238123813161283  0.3744389944590949  0.3745845915389476
  0.5013162958788113  0.7495719123247465  0.5007951103230646
  0.7504060337036939  0.7502067298008201  0.5002233107976169
 -0.0012839286392944  0.7491221616933172  0.4991264226010194
  0.3731505016656828  0.8768299082555397  0.3751554798262889
  0.4989080520569523  0.2513303128423378  0.7486949308322826
  0.8758895656825684  0.1243880576538944  0.6256637521245628
  0.5003901833265090  0.7496240287389556  0.7501191904431215
  0.1255113297464893  0.8756902871970675  0.6260013245517602
  0.1251554558059279  0.1250373676662483  0.8754442932117588
  0.6256398920352271  0.1259299034269791  0.8741690571852182
  0.8754287074891053  0.3755624700362400  0.8747710455801015
  0.1247125204410619  0.6249710812032623  0.8755601801981227
  0.5004389276945556  0.7500062743932540 -0.0003007568672546
  0.4994787171763470 -0.0012449267112653  0.0008369033860406
  0.7512278968030670 -0.0013882796490903  0.0013455447929426
  0.1246099609086173  0.1231218147272054  0.1234534074582835
  0.4988387009639783  0.2476905477290581  0.2506519867504327
  0.3745382046771328  0.1252918868239409  0.1250684275538905
  0.7517841476532321  0.2483597148368106  0.2503218213507709
  0.6252487157051525  0.1262632773727559  0.1263556753004862
  0.8753960066585036  0.1242339929533070  0.1256335579849147
  0.2495158145681228  0.5002326246777451  0.2514182458417035
  0.1251903973040670  0.3762820802494109  0.1234349950361154
  0.4997812727429919  0.5021796585252926  0.2506089502600857
 -0.0006868852458551  0.4994555806279503  0.2509537443407895
  0.8749640372367159  0.3749036146737116  0.1227965448245528
  0.2495828020762975  0.7506402967544681  0.2495282794523691
  0.3730955986769257  0.6236463357247088  0.1244447047951015
  0.7504820080219090  0.7505044349287868  0.2499370026626128
  0.6262952010166634  0.6242410951894575  0.1235256487197559
 -0.0005364859381450  0.7510859484180287  0.2503912319542707
  0.8763182939043660  0.6263146319649306  0.1239490672587322
  0.2486840368501025  0.0004091693233293  0.2493697072951159
  0.1241602307324369  0.8747561152486699  0.1249404828636710
  0.5007874444816128  0.0004141245507536  0.2499766284083049
  0.3722441281100614  0.8757198050405864  0.1258105720576993
  0.7504719417116937 -0.0005574907057128  0.2501694181252090
  0.6272508472528882  0.8748652243535766  0.1265286863485450
 -0.0003349733840005 -0.0001549379430824  0.2499745053941922
  0.8765042716199805  0.8743160491330723  0.1254226812585327
  0.1241444088164569  0.1228124133703761  0.3756150387324053
  0.4993886496537809  0.2492164767726406  0.5008419864854827
  0.3761767829676293  0.1233525067301282  0.3752870010663207
  0.6244392923325973  0.1245681695789545  0.3744388937307427
  0.0004599624054186  0.2508379561962030  0.4991417934370995
  0.8748473843959494  0.1233044727589752  0.3752571891514988
  0.1232866039850795  0.3761185579483054  0.3755213258303115
  0.4987753605627044  0.5004952493405425  0.5010448468293501
  0.3766320321471048  0.3754693268950244  0.3741951200352612
  0.7506109747828421  0.5006321604145058  0.5008341970533683
  0.0004673092030315  0.5002437310536518  0.5001720812541192
  0.8755732766377944  0.3754959433019073  0.3757731757227929
  0.2495045756919230  0.7486277499870724  0.5000682230227335
  0.1246907258162726  0.6252033638953551  0.3731994199381019
  0.3737625394212550  0.6250911756075223  0.3745564765379513
  0.6254500245897284  0.6236681431136180  0.3751593554619208
  0.8762422707496443  0.6248480272561810  0.3742167985679085
  0.2500223988990650  0.0018758334250834  0.5001670380120868
  0.1251760099786987  0.8754592726839632  0.3743711901924238
  0.5005240209981404  0.0008013617892677  0.5003176419535197
  0.7492091859669002 -0.0005611776665334  0.4991124845612588
  0.6258100167332674  0.8776508552079405  0.3747212764252852
 -0.0001014192716329 -0.0004628540351332  0.4984546469516893
  0.8752966396804721  0.8761204675038113  0.3731866709935499
  0.2507274943268273  0.2506250213181354  0.7493820842810739
  0.1243774876328706  0.1242982922161492  0.6263450124560146
  0.3750262149282456  0.1241879109687127  0.6248778927612048
  0.7491285366577684  0.2512273033221515  0.7489824248658283
  0.6252121935045785  0.1240481698372702  0.6246536873823554
  0.0010213909436264  0.2509230943628097  0.7496650385714716
  0.2505810432563009  0.4995629372352206  0.7491005691130627
  0.1236943987134052  0.3749516766557385  0.6265034373186962
  0.5002326225796655  0.4999926951245953  0.7495943597946981
  0.3752243274897473  0.3754730651343938  0.6262641112959983
  0.7494559785094070  0.5013465780332433  0.7495299733222438
  0.6249818798294743  0.3763288853617843  0.6246417355009105
 -0.0002421907716308  0.5001153165854393  0.7485773750597098
  0.8758412150420526  0.3753073160368974  0.6264654702063520
  0.2512830218106537  0.7501273484673041  0.7505575505008620
  0.1247152545958541  0.6250841400598992  0.6266099473967121
  0.3746085968963153  0.6240948800129000  0.6259413122744180
  0.7499553547222934  0.7495218292328932  0.7501071537055746
  0.6259993072543174  0.6230858341397592  0.6263154263283004
 -0.0014513723210334  0.7497899551468650  0.7502048930595631
  0.8748803580117398  0.6235712046935394  0.6265429411351759
  0.2509457526325447  0.0000950345982798  0.7502962988116558
  0.4993293450771363 -0.0002403437865791  0.7489133270221975
  0.3734253741054968  0.8763994548699716  0.6250970130447174
  0.7503078861943842 -0.0018873040043655  0.7501766734818842
  0.6259209097325900  0.8766727416533515  0.6256087171258221
 -0.0002184265550074 -0.0006253769862619  0.7509896375128317
  0.8755643967428830  0.8761571866796457  0.6266978401551179
  0.2494318730663101  0.2496554554283179 -0.0000700625425055
  0.4990759576206239  0.2491899031308022 -0.0014956259487405
  0.3731060429099793  0.1253137753099496  0.8748095283953377
  0.7511957568077831  0.2491581298786966  0.0004941432626970
  0.0002936232319605  0.2497347872204022  0.0015739392627779
  0.8763645465964016  0.1256889102962842  0.8748056176000064
  0.2505022672748414  0.4994105993369286 -0.0013168962499062
  0.1245313807897290  0.3746878424153290  0.8746177486716841
  0.5000501638723156  0.5015097426071742 -0.0021309300481701
  0.3740327627928640  0.3756808929662678  0.8754470286511729
  0.7501378585742416  0.5017323686365870 -0.0005835556090319
  0.6259607580164007  0.3758153462561477  0.8751932513835219
 -0.0006581653272180  0.4996590195894304  0.0003668212229751
  0.2507577673240626  0.7514470941581799 -0.0000841290981083
  0.3735301570179492  0.6235982647481678  0.8747540773603598
  0.7505438241946525  0.7501394872195759 -0.0002801900791644
  0.6266037224596929  0.6236373448659112  0.8746234483674873
 -0.0013413320834693  0.7514492019725151  0.0003001070691772
  0.8751781927451852  0.6247532836793548  0.8750809329484591
  0.2501173306105780 -0.0006204041434358  0.0006217239845158
  0.1245400358522716  0.8752500251320622  0.8752167865155603
  0.3726573293749461  0.8753140870317162  0.8744830713897239
  0.6270568309124509  0.8745632865490420  0.8736629070942339
 -0.0003412123329599 -0.0008673378211013  0.0012970515473488
  0.8762738655401509  0.8735736831663812  0.8753258903890140
 
  0.00000000E+00  0.00000000E+00  0.00000000E+00
  0.00000000E+00  0.00000000E+00  0.00000000E+00
  0.00000000E+00  0.00000000E+00  0.00000000E+00
  0.00000000E+00  0.00000000E+00  0.00000000E+00
  0.00000000E+00  0.00000000E+00  0.00000000E+00
  0.00000000E+00  0.00000000E+00  0.00000000E+00
  0.00000000E+00  0.00000000E+00  0.00000000E+00
  0.00000000E+00  0.00000000E+00  0.00000000E+00
  0.00000000E+00  0.00000000E+00  0.00000000E+00
  0.00000000E+00  0.00000000E+00  0.00000000E+00
  0.00000000E+00  0.00000000E+00  0.00000000E+00
  0.00000000E+00  0.00000000E+00  0.00000000E+00
  0.00000000E+00  0.00000000E+00  0.00000000E+00
  0.00000000E+00  0.00000000E+00  0.00000000E+00
  0.00000000E+00  0.00000000E+00  0.00000000E+00
  0.00000000E+00  0.00000000E+00  0.00000000E+00
  0.00000000E+00  0.00000000E+00  0.00000000E+00
  0.00000000E+00  0.00000000E+00  0.00000000E+00
  0.00000000E+00  0.00000000E+00  0.00000000E+00
  0.00000000E+00  0.00000000E+00  0.00000000E+00
  0.00000000E+00  0.00000000E+00  0.00000000E+00
  0.00000000E+00  0.00000000E+00  0.00000000E+00
  0.00000000E+00  0.00000000E+00  0.00000000E+00
  0.00000000E+00  0.00000000E+00  0.00000000E+00
  0.00000000E+00  0.00000000E+00  0.00000000E+00
  0.00000000E+00  0.00000000E+00  0.00000000E+00
  0.00000000E+00  0.00000000E+00  0.00000000E+00
  0.00000000E+00  0.00000000E+00  0.00000000E+00
  0.00000000E+00  0.00000000E+00  0.00000000E+00
  0.00000000E+00  0.00000000E+00  0.00000000E+00
  0.00000000E+00  0.00000000E+00  0.00000000E+00
  0.00000000E+00  0.00000000E+00  0.00000000E+00
  0.00000000E+00  0.00000000E+00  0.00000000E+00
  0.00000000E+00  0.00000000E+00  0.00000000E+00
  0.00000000E+00  0.00000000E+00  0.00000000E+00
  0.00000000E+00  0.00000000E+00  0.00000000E+00
  0.00000000E+00  0.00000000E+00  0.00000000E+00
  0.00000000E+00  0.00000000E+00  0.00000000E+00
  0.00000000E+00  0.00000000E+00  0.00000000E+00
  0.00000000E+00  0.00000000E+00  0.00000000E+00
  0.00000000E+00  0.00000000E+00  0.00000000E+00
  0.00000000E+00  0.00000000E+00  0.00000000E+00
  0.00000000E+00  0.00000000E+00  0.00000000E+00
  0.00000000E+00  0.00000000E+00  0.00000000E+00
  0.00000000E+00  0.00000000E+00  0.00000000E+00
  0.00000000E+00  0.00000000E+00  0.00000000E+00
  0.00000000E+00  0.00000000E+00  0.00000000E+00
  0.00000000E+00  0.00000000E+00  0.00000000E+00
  0.00000000E+00  0.00000000E+00  0.00000000E+00
  0.00000000E+00  0.00000000E+00  0.00000000E+00
  0.00000000E+00  0.00000000E+00  0.00000000E+00
  0.00000000E+00  0.00000000E+00  0.00000000E+00
  0.00000000E+00  0.00000000E+00  0.00000000E+00
  0.00000000E+00  0.00000000E+00  0.00000000E+00
  0.00000000E+00  0.00000000E+00  0.00000000E+00
  0.00000000E+00  0.00000000E+00  0.00000000E+00
  0.00000000E+00  0.00000000E+00  0.00000000E+00
  0.00000000E+00  0.00000000E+00  0.00000000E+00
  0.00000000E+00  0.00000000E+00  0.00000000E+00
  0.00000000E+00  0.00000000E+00  0.00000000E+00
  0.00000000E+00  0.00000000E+00  0.00000000E+00
  0.00000000E+00  0.00000000E+00  0.00000000E+00
  0.00000000E+00  0.00000000E+00  0.00000000E+00
  0.00000000E+00  0.00000000E+00  0.00000000E+00
  0.00000000E+00  0.00000000E+00  0.00000000E+00
  0.00000000E+00  0.00000000E+00  0.00000000E+00
  0.00000000E+00  0.00000000E+00  0.00000000E+00
  0.00000000E+00  0.00000000E+00  0.00000000E+00
  0.00000000E+00  0.00000000E+00  0.00000000E+00
  0.00000000E+00  0.00000000E+00  0.00000000E+00
  0.00000000E+00  0.00000000E+00  0.00000000E+00
  0.00000000E+00  0.00000000E+00  0.00000000E+00
  0.00000000E+00  0.00000000E+00  0.00000000E+00
  0.00000000E+00  0.00000000E+00  0.00000000E+00
  0.00000000E+00  0.00000000E+00  0.00000000E+00
  0.00000000E+00  0.00000000E+00  0.00000000E+00
  0.00000000E+00  0.00000000E+00  0.00000000E+00
  0.00000000E+00  0.00000000E+00  0.00000000E+00
  0.00000000E+00  0.00000000E+00  0.00000000E+00
  0.00000000E+00  0.00000000E+00  0.00000000E+00
  0.00000000E+00  0.00000000E+00  0.00000000E+00
  0.00000000E+00  0.00000000E+00  0.00000000E+00
  0.00000000E+00  0.00000000E+00  0.00000000E+00
  0.00000000E+00  0.00000000E+00  0.00000000E+00
  0.00000000E+00  0.00000000E+00  0.00000000E+00
  0.00000000E+00  0.00000000E+00  0.00000000E+00
  0.00000000E+00  0.00000000E+00  0.00000000E+00
  0.00000000E+00  0.00000000E+00  0.00000000E+00
  0.00000000E+00  0.00000000E+00  0.00000000E+00
  0.00000000E+00  0.00000000E+00  0.00000000E+00
  0.00000000E+00  0.00000000E+00  0.00000000E+00
  0.00000000E+00  0.00000000E+00  0.00000000E+00
  0.00000000E+00  0.00000000E+00  0.00000000E+00
  0.00000000E+00  0.00000000E+00  0.00000000E+00
  0.00000000E+00  0.00000000E+00  0.00000000E+00
  0.00000000E+00  0.00000000E+00  0.00000000E+00
  0.00000000E+00  0.00000000E+00  0.00000000E+00
  0.00000000E+00  0.00000000E+00  0.00000000E+00
  0.00000000E+00  0.00000000E+00  0.00000000E+00
  0.00000000E+00  0.00000000E+00  0.00000000E+00
  0.00000000E+00  0.00000000E+00  0.00000000E+00
  0.00000000E+00  0.00000000E+00  0.00000000E+00
  0.00000000E+00  0.00000000E+00  0.00000000E+00
  0.00000000E+00  0.00000000E+00  0.00000000E+00
  0.00000000E+00  0.00000000E+00  0.00000000E+00
  0.00000000E+00  0.00000000E+00  0.00000000E+00
  0.00000000E+00  0.00000000E+00  0.00000000E+00
  0.00000000E+00  0.00000000E+00  0.00000000E+00
  0.00000000E+00  0.00000000E+00  0.00000000E+00
  0.00000000E+00  0.00000000E+00  0.00000000E+00
  0.00000000E+00  0.00000000E+00  0.00000000E+00
  0.00000000E+00  0.00000000E+00  0.00000000E+00
  0.00000000E+00  0.00000000E+00  0.00000000E+00
  0.00000000E+00  0.00000000E+00  0.00000000E+00
  0.00000000E+00  0.00000000E+00  0.00000000E+00
  0.00000000E+00  0.00000000E+00  0.00000000E+00
  0.00000000E+00  0.00000000E+00  0.00000000E+00
  0.00000000E+00  0.00000000E+00  0.00000000E+00
  0.00000000E+00  0.00000000E+00  0.00000000E+00
  0.00000000E+00  0.00000000E+00  0.00000000E+00
  0.00000000E+00  0.00000000E+00  0.00000000E+00
  0.00000000E+00  0.00000000E+00  0.00000000E+00
  0.00000000E+00  0.00000000E+00  0.00000000E+00
  0.00000000E+00  0.00000000E+00  0.00000000E+00
  0.00000000E+00  0.00000000E+00  0.00000000E+00
  0.00000000E+00  0.00000000E+00  0.00000000E+00
  0.00000000E+00  0.00000000E+00  0.00000000E+00
  0.00000000E+00  0.00000000E+00  0.00000000E+00
