#generated using str2pos                
    1.000000000000000     
    12.9280536123706860    0.0146487813174807   -0.0167387562684486
     0.0146440327578431   12.9339853057590428   -0.0119049381858119
    -0.0167369687204199   -0.0119059832608404   12.9288338602432784
   Ta   W 
    64    64
Direct
  0.2511481854788583  0.2508350492779993  0.2547733269099156
  0.1279210224490495  0.1231395705817138  0.1248229534031629
  0.3767095298752740  0.1242408497815811  0.1229630741650678
  0.7489281906567433  0.2500607458677466  0.2481702133846450
  0.1267693917740497  0.3763534274534908  0.1265429078812595
  0.3755063335470147  0.3767315009211334  0.1261407036759096
  0.7503975640509322  0.4996148761052971  0.2531831745398432
 -0.0001859283162751  0.5000341704098040  0.2528158888426094
  0.8752379552896958  0.3760217307092345  0.1249179376816287
  0.3741537920002551  0.6258146953234193  0.1272204410759138
  0.6242828577861992  0.6281460702318934  0.1254937943787487
  0.8738784610976493  0.6279258737202618  0.1245520667645951
  0.1265375840958602  0.8727669339493495  0.1251592884792810
  0.5012884763360574  0.0002537211926985  0.2512347107390512
  0.6255695317321380  0.8743784968488928  0.1240948017208486
 -0.0001517724855360  0.0023332901847208  0.2481038959198993
  0.8725525575605251  0.8719064297320706  0.1260289711574928
  0.2515556294677940  0.2514003779227131  0.4987533423489857
  0.4987862543676113  0.2500750598068442  0.5011692639712194
  0.0033625139580907  0.2537417184767397  0.4976354322730752
  0.8748689715471460  0.1252109606862421  0.3755677368588349
  0.4982140446038645  0.4981219424288758  0.4987040101991464
  0.6244785358628206  0.3753576328787726  0.3748827563835637
  0.1264628602132189  0.6260577920010014  0.3761271239181176
  0.7500773828378566  0.7482592148170905  0.4986396095774763
  0.2530482593697402  0.0044407801101118  0.4981383339388692
  0.1254722227045283  0.8718475359406678  0.3742805416941750
  0.5003445639069201  0.0040164477072113  0.4977862669114361
  0.3742062542067374  0.8712691776029784  0.3737945105339558
  0.7451639629882406  0.0006207736833507  0.4994960080346026
  0.8761407857340711  0.8748286973675904  0.3736335045694999
  0.2517470338329024  0.2534928514910897  0.7461772632694250
  0.1221893002069996  0.1229798453657681  0.6272017132619474
  0.5004206918450991  0.2490389745964136  0.7458327817060889
  0.8765824723437802  0.1271265064799205  0.6244961485061354
  0.7502494044638042  0.5003176273605278  0.7467183517683870
  0.0030753889107904  0.5019267221977788  0.7484870871939467
  0.8748819564980190  0.3732355735838866  0.6241130462186238
  0.2474294194531145  0.7448764674630834  0.7522899486542695
  0.3746749649491664  0.6251617767618344  0.6246528039932289
  0.7537012672990127  0.7504626260091289  0.7491173169651885
  0.6210081457946111  0.6252080095442120  0.6253521063116265
  0.0002567268463541  0.7469579007312164  0.7501388715338969
  0.1249762691307306  0.8760247144281987  0.6235055894026823
  0.3749467720026692  0.8721333771092482  0.6260831421566314
  0.7494896736604680  0.0012259014244669  0.7517545594408616
  0.6205612047870426  0.8734978399974811  0.6268897801941334
  0.8786626573226927  0.8769157072901829  0.6229488681609574
  0.2485497915043904  0.2521196224792586 -0.0021195631167560
  0.1260115392473417  0.1218796394504733  0.8717409030852284
  0.3758581890947191  0.1212128807564151  0.8768589073911097
  0.7495783929859342  0.2460229900208729  0.0016060997160610
 -0.0016986728703773  0.2483625932229128 -0.0013067319329635
  0.4988260898783103  0.5002621808916740  0.0012188496339369
  0.3759775310400489  0.3768852564838242  0.8755316128095785
  0.6249579776172728  0.3753956513977514  0.8744173913323415
  0.0040020531041169  0.4999153798011827 -0.0007782223925991
  0.8731814503755825  0.3743295323012249  0.8728795230162396
  0.6236434334196370  0.6260312421107173  0.8769000728991474
  0.8733121615229251  0.6250203495979996  0.8795858422154728
  0.1269132257229307  0.8754209644123025  0.8767224295263473
  0.3755926539981262  0.8754533382420295  0.8761056778185330
  0.6216050224448957  0.8742482206932485  0.8780790970132849
 -0.0043066151937026  0.0008953394635095  0.0000339235176788
  0.5012124381031776  0.2492422148102835  0.2516935927985314
  0.6232882663198940  0.1233451825946484  0.1241210502772152
  0.0006300157131123  0.2505862714123902  0.2514586392051812
  0.8732472524491119  0.1234091386162129  0.1262016628036101
  0.2501411021453203  0.5004963414304336  0.2528264832417637
  0.5004793086700570  0.5005613011055563  0.2522032275632874
  0.6228230136822066  0.3750528629608629  0.1255549300114052
  0.2516335773824054  0.7483334819526567  0.2487681920973288
  0.1272766902860332  0.6271391509984686  0.1265289203749591
  0.4992042915528645  0.7504479392881992  0.2517494084912356
  0.7479138342580011  0.7489404770945852  0.2538528084902966
  0.0004788147410830  0.7479980091485776  0.2503976413405481
  0.2516638482750601  0.0007698675567053  0.2516632621047581
  0.3746891330842196  0.8737716698301118  0.1244727948226035
  0.7478082510768431  0.0020478693745944  0.2497058132052204
  0.1238361470782314  0.1250081643036661  0.3739062700822346
  0.3758370253668938  0.1255953488056904  0.3718443535164071
  0.7480842280033577  0.2504938180703840  0.4986997273699479
  0.6265071201713888  0.1269148937925705  0.3732997333087263
  0.2501038255648461  0.4978369739635713  0.5006375877507292
  0.1262476690463835  0.3787344879282085  0.3752418021030837
  0.3759562533986439  0.3782526597542544  0.3731109400201916
  0.7503459589939218  0.5010166556418025  0.4990364240088093
  0.0011305076273177  0.4998627771832898  0.5000204047462680
  0.8749519649674433  0.3753873526561283  0.3774812686458985
  0.2497533320478206  0.7473014722322053  0.4999308973603653
  0.5008600487893793  0.7483966057342522  0.4970400183135992
  0.3734345275716836  0.6258288196012888  0.3744777073051830
  0.6233688747512499  0.6247904892193625  0.3745078705039739
 -0.0013167451813835  0.7462310554687900  0.5012188395361803
  0.8766899744970055  0.6263259166216649  0.3750190824870510
  0.6240960129679386  0.8728329722507533  0.3723866742568144
  0.0013467504595149  0.0015799089918175  0.4978039648001015
  0.3751328971169996  0.1233346738822773  0.6269047176240017
  0.7474043011545140  0.2479965648718200  0.7498665257380761
  0.6263797389579040  0.1260049796964960  0.6257843940749849
  0.0015182213635365  0.2519714828741852  0.7499027948924865
  0.2480366862440856  0.4995097219816865  0.7493008528056038
  0.1246342749462198  0.3772302824012924  0.6240076512132693
  0.4982190505739592  0.4982034698512647  0.7488966200351628
  0.3741259522196830  0.3792060555388196  0.6251608158176244
  0.6273350163432735  0.3756508561089583  0.6239027030564825
  0.1269638622852454  0.6240232946696963  0.6217703029223142
  0.4979376317992976  0.7489345998272811  0.7514227116898820
  0.8761020989274105  0.6229028992847350  0.6216605190011908
  0.2512251755639474 -0.0000285601917878  0.7480509642439512
  0.5017540484433276  0.0031651562598597  0.7492131675516845
 -0.0029646129705927 -0.0012287028467915  0.7526773141423021
  0.5037651635025919  0.2496488071957932  0.0003147239221383
  0.6239340168110705  0.1237039376303621  0.8760326313872708
  0.8745847486040305  0.1247642221499526  0.8722379157621635
  0.2491786775059174  0.5022660910709463 -0.0014636870541255
  0.1264150059380203  0.3759979723181868  0.8734620140280996
  0.7482843939355017  0.4976365024763597  0.0018578412580139
  0.2497678854278810  0.7474308500999310  0.0007185927827504
  0.1267335735181527  0.6249019466711707  0.8770462479713464
  0.4966344225497737  0.7499763834470222  0.0016103483358430
  0.3747385523811732  0.6254759178353406  0.8758978827098646
  0.7499738893228073  0.7520497246740496  0.0000920630357624
  0.0015633039197841  0.7492607125446382 -0.0012085689312413
  0.2510735576591268 -0.0024119468103843  0.0013434361204062
  0.5017478939880401  0.0004834316362642  0.0022366384034077
  0.7502420530507650  0.0028345949484453 -0.0012458593886351
  0.8742516571189891  0.8747287806268121  0.8776219487009054
 
  0.00000000E+00  0.00000000E+00  0.00000000E+00
  0.00000000E+00  0.00000000E+00  0.00000000E+00
  0.00000000E+00  0.00000000E+00  0.00000000E+00
  0.00000000E+00  0.00000000E+00  0.00000000E+00
  0.00000000E+00  0.00000000E+00  0.00000000E+00
  0.00000000E+00  0.00000000E+00  0.00000000E+00
  0.00000000E+00  0.00000000E+00  0.00000000E+00
  0.00000000E+00  0.00000000E+00  0.00000000E+00
  0.00000000E+00  0.00000000E+00  0.00000000E+00
  0.00000000E+00  0.00000000E+00  0.00000000E+00
  0.00000000E+00  0.00000000E+00  0.00000000E+00
  0.00000000E+00  0.00000000E+00  0.00000000E+00
  0.00000000E+00  0.00000000E+00  0.00000000E+00
  0.00000000E+00  0.00000000E+00  0.00000000E+00
  0.00000000E+00  0.00000000E+00  0.00000000E+00
  0.00000000E+00  0.00000000E+00  0.00000000E+00
  0.00000000E+00  0.00000000E+00  0.00000000E+00
  0.00000000E+00  0.00000000E+00  0.00000000E+00
  0.00000000E+00  0.00000000E+00  0.00000000E+00
  0.00000000E+00  0.00000000E+00  0.00000000E+00
  0.00000000E+00  0.00000000E+00  0.00000000E+00
  0.00000000E+00  0.00000000E+00  0.00000000E+00
  0.00000000E+00  0.00000000E+00  0.00000000E+00
  0.00000000E+00  0.00000000E+00  0.00000000E+00
  0.00000000E+00  0.00000000E+00  0.00000000E+00
  0.00000000E+00  0.00000000E+00  0.00000000E+00
  0.00000000E+00  0.00000000E+00  0.00000000E+00
  0.00000000E+00  0.00000000E+00  0.00000000E+00
  0.00000000E+00  0.00000000E+00  0.00000000E+00
  0.00000000E+00  0.00000000E+00  0.00000000E+00
  0.00000000E+00  0.00000000E+00  0.00000000E+00
  0.00000000E+00  0.00000000E+00  0.00000000E+00
  0.00000000E+00  0.00000000E+00  0.00000000E+00
  0.00000000E+00  0.00000000E+00  0.00000000E+00
  0.00000000E+00  0.00000000E+00  0.00000000E+00
  0.00000000E+00  0.00000000E+00  0.00000000E+00
  0.00000000E+00  0.00000000E+00  0.00000000E+00
  0.00000000E+00  0.00000000E+00  0.00000000E+00
  0.00000000E+00  0.00000000E+00  0.00000000E+00
  0.00000000E+00  0.00000000E+00  0.00000000E+00
  0.00000000E+00  0.00000000E+00  0.00000000E+00
  0.00000000E+00  0.00000000E+00  0.00000000E+00
  0.00000000E+00  0.00000000E+00  0.00000000E+00
  0.00000000E+00  0.00000000E+00  0.00000000E+00
  0.00000000E+00  0.00000000E+00  0.00000000E+00
  0.00000000E+00  0.00000000E+00  0.00000000E+00
  0.00000000E+00  0.00000000E+00  0.00000000E+00
  0.00000000E+00  0.00000000E+00  0.00000000E+00
  0.00000000E+00  0.00000000E+00  0.00000000E+00
  0.00000000E+00  0.00000000E+00  0.00000000E+00
  0.00000000E+00  0.00000000E+00  0.00000000E+00
  0.00000000E+00  0.00000000E+00  0.00000000E+00
  0.00000000E+00  0.00000000E+00  0.00000000E+00
  0.00000000E+00  0.00000000E+00  0.00000000E+00
  0.00000000E+00  0.00000000E+00  0.00000000E+00
  0.00000000E+00  0.00000000E+00  0.00000000E+00
  0.00000000E+00  0.00000000E+00  0.00000000E+00
  0.00000000E+00  0.00000000E+00  0.00000000E+00
  0.00000000E+00  0.00000000E+00  0.00000000E+00
  0.00000000E+00  0.00000000E+00  0.00000000E+00
  0.00000000E+00  0.00000000E+00  0.00000000E+00
  0.00000000E+00  0.00000000E+00  0.00000000E+00
  0.00000000E+00  0.00000000E+00  0.00000000E+00
  0.00000000E+00  0.00000000E+00  0.00000000E+00
  0.00000000E+00  0.00000000E+00  0.00000000E+00
  0.00000000E+00  0.00000000E+00  0.00000000E+00
  0.00000000E+00  0.00000000E+00  0.00000000E+00
  0.00000000E+00  0.00000000E+00  0.00000000E+00
  0.00000000E+00  0.00000000E+00  0.00000000E+00
  0.00000000E+00  0.00000000E+00  0.00000000E+00
  0.00000000E+00  0.00000000E+00  0.00000000E+00
  0.00000000E+00  0.00000000E+00  0.00000000E+00
  0.00000000E+00  0.00000000E+00  0.00000000E+00
  0.00000000E+00  0.00000000E+00  0.00000000E+00
  0.00000000E+00  0.00000000E+00  0.00000000E+00
  0.00000000E+00  0.00000000E+00  0.00000000E+00
  0.00000000E+00  0.00000000E+00  0.00000000E+00
  0.00000000E+00  0.00000000E+00  0.00000000E+00
  0.00000000E+00  0.00000000E+00  0.00000000E+00
  0.00000000E+00  0.00000000E+00  0.00000000E+00
  0.00000000E+00  0.00000000E+00  0.00000000E+00
  0.00000000E+00  0.00000000E+00  0.00000000E+00
  0.00000000E+00  0.00000000E+00  0.00000000E+00
  0.00000000E+00  0.00000000E+00  0.00000000E+00
  0.00000000E+00  0.00000000E+00  0.00000000E+00
  0.00000000E+00  0.00000000E+00  0.00000000E+00
  0.00000000E+00  0.00000000E+00  0.00000000E+00
  0.00000000E+00  0.00000000E+00  0.00000000E+00
  0.00000000E+00  0.00000000E+00  0.00000000E+00
  0.00000000E+00  0.00000000E+00  0.00000000E+00
  0.00000000E+00  0.00000000E+00  0.00000000E+00
  0.00000000E+00  0.00000000E+00  0.00000000E+00
  0.00000000E+00  0.00000000E+00  0.00000000E+00
  0.00000000E+00  0.00000000E+00  0.00000000E+00
  0.00000000E+00  0.00000000E+00  0.00000000E+00
  0.00000000E+00  0.00000000E+00  0.00000000E+00
  0.00000000E+00  0.00000000E+00  0.00000000E+00
  0.00000000E+00  0.00000000E+00  0.00000000E+00
  0.00000000E+00  0.00000000E+00  0.00000000E+00
  0.00000000E+00  0.00000000E+00  0.00000000E+00
  0.00000000E+00  0.00000000E+00  0.00000000E+00
  0.00000000E+00  0.00000000E+00  0.00000000E+00
  0.00000000E+00  0.00000000E+00  0.00000000E+00
  0.00000000E+00  0.00000000E+00  0.00000000E+00
  0.00000000E+00  0.00000000E+00  0.00000000E+00
  0.00000000E+00  0.00000000E+00  0.00000000E+00
  0.00000000E+00  0.00000000E+00  0.00000000E+00
  0.00000000E+00  0.00000000E+00  0.00000000E+00
  0.00000000E+00  0.00000000E+00  0.00000000E+00
  0.00000000E+00  0.00000000E+00  0.00000000E+00
  0.00000000E+00  0.00000000E+00  0.00000000E+00
  0.00000000E+00  0.00000000E+00  0.00000000E+00
  0.00000000E+00  0.00000000E+00  0.00000000E+00
  0.00000000E+00  0.00000000E+00  0.00000000E+00
  0.00000000E+00  0.00000000E+00  0.00000000E+00
  0.00000000E+00  0.00000000E+00  0.00000000E+00
  0.00000000E+00  0.00000000E+00  0.00000000E+00
  0.00000000E+00  0.00000000E+00  0.00000000E+00
  0.00000000E+00  0.00000000E+00  0.00000000E+00
  0.00000000E+00  0.00000000E+00  0.00000000E+00
  0.00000000E+00  0.00000000E+00  0.00000000E+00
  0.00000000E+00  0.00000000E+00  0.00000000E+00
  0.00000000E+00  0.00000000E+00  0.00000000E+00
  0.00000000E+00  0.00000000E+00  0.00000000E+00
  0.00000000E+00  0.00000000E+00  0.00000000E+00
  0.00000000E+00  0.00000000E+00  0.00000000E+00
  0.00000000E+00  0.00000000E+00  0.00000000E+00
  0.00000000E+00  0.00000000E+00  0.00000000E+00
