#BCC aalvarado POSCAR generator         
    12.76000000000000     
     1.0009575734540108    0.0002369364439683    0.0001458405633923
     0.0002369014938347    1.0012861689305244    0.0001779654201391
     0.0001458249943917    0.0001779842131333    1.0009487966272999
   Ta   W 
    25   103
Direct
  0.6256790269079551  0.3768556347047974  0.3771729369189029
  0.3755834910568540  0.3758269693272973  0.6262984194460096
  0.3757714376321590  0.6240911387782343  0.6238122626977473
  0.7498631540215090  0.5013831513570670  0.7496782146177741
  0.7499979533974109  0.7496198208565971  0.2492763345522822
  0.7502793563908722  0.2482512506846568  0.2487542302382351
  0.4997403289330901  0.2483259530073599  0.2497204956115127
  0.2485779798785841  0.2494582031033861  0.2508853987124599
  0.2489790154377724  0.2486381017460850  0.4995691349513666
  0.2488686401434469  0.7506900620969327  0.7508833667953281
  0.8762159168284935  0.8757523070143711  0.3756940134194559
  0.8748369793850351  0.3749716023534672  0.3751573587891525
  0.8771122127367090  0.3734727533046404  0.8749816704046318
  0.3738029072307802  0.8735877223419500  0.3755561478626023
  0.3731344530605958  0.3759329437839730  0.1234887357561559
  0.3744381524332064  0.8747554814927749  0.1253528127504253
  0.8762349633550433  0.1253243459950366  0.8755870354495880
  0.1252912878777314  0.1251130922105145  0.8749528318413975
  0.7491582969453954 -0.0011543130451355  0.7492830956748455
  0.0008525386183722  0.5012408205370674  0.5006476892100141
  0.7495014218800208  0.5013568379789418  0.0000102068935071
  0.5006800469095793  0.5010014195710575 -0.0009037990857121
  0.5001799141432883  0.0001474153805087  0.7500686112308581
  0.5014450997752263  0.0010243227236947  0.2500770795870823
  0.2486683289818571  0.7493517646516452 -0.0010682404997313
  0.5006643927972011  0.5011928091570396  0.4994567714327705
  0.6247025148248713  0.6261066354985597  0.6241561887166889
  0.6241228842900862  0.6246903117446863  0.3757519592733495
  0.3755366206778387  0.3774795047531934  0.3758299569954768
  0.6244137358981379  0.3744178152208006  0.6244372925482111
  0.3747159195446610  0.6257827726317887  0.3752530921851231
  0.7505119443356869  0.7502437332392440  0.7500132698923608
  0.7495852638081381  0.7501631465964103  0.5005133147457043
  0.7505478837631643  0.5016260116602322  0.5018678154451542
  0.5013278910408904  0.4999872280949161  0.7512357044516200
  0.5015189073997480  0.7500096056098464  0.5002027755960619
  0.5006328841559814  0.7512155439805580  0.7503636447668142
  0.7505761467656936  0.5016765728090936  0.2487278858549931
  0.4991475025941827  0.5014411082894688  0.2498423759324373
  0.5014476863535267  0.7489909295680820  0.2501722935183793
  0.7502583824170379  0.2482972868805032  0.5011476507496022
  0.4999641546467380  0.2486109033128733  0.5009531695847734
  0.2486913949934218  0.5005518883540496  0.2502593742648744
  0.2486081295787913  0.4999200409974675  0.4985463881737359
  0.7487838318212409  0.2500352591918352  0.7485696622054082
  0.5003365587367016  0.2489941840397993  0.7508281471937001
  0.2502735774528842  0.2500641330151546  0.7499015196219752
  0.2486574062107143  0.5002050958212538  0.7514012402107503
  0.2483009528971198  0.7481838725949985  0.2498652679740735
  0.2488127587357818  0.7503317294914253  0.5001725679650839
  0.8753446498037118  0.8743103738265489  0.8755387809903886
  0.8757354414015888  0.8744132282683201  0.6243100098836420
  0.8749707679716721  0.6267753640060520  0.6252475531966598
  0.8763906749722618  0.6265012334470648  0.8749226566331135
  0.6245709809329369  0.6275802533913779  0.8739283396738912
  0.6256241135063130  0.8738045954277011  0.6242327123995979
  0.6253546853633319  0.8738494895179463  0.8757758807063108
  0.8754285610090377  0.6256258078152032  0.3750010739270350
  0.6253847936733561  0.8743837197020080  0.3765047384371934
  0.8752902219624535  0.3738309319146498  0.6251373888597952
  0.6245455107384144  0.3732819398028547  0.8735585391389986
  0.3740687530753919  0.3740022387755222  0.8741011889296960
  0.3752687596452781  0.6242106256840799  0.8738311853926087
  0.3746944732042791  0.8748817850571182  0.6235818271242181
  0.3755085175870062  0.8760804601202693  0.8756588575416527
  0.8758447926051048  0.8754808410739492  0.1245638831623248
  0.8766616990219472  0.6256494667587128  0.1248072550709634
  0.6247525568413306  0.6265966315201597  0.1257087516239302
  0.6255665739001693  0.8750379809502807  0.1233570751204105
  0.8771133625551849  0.3749142367194445  0.1250467708370641
  0.6248335326382519  0.3751660325548720  0.1250538955800564
  0.3742053349631285  0.6249836517969835  0.1265325058381528
  0.8759104905167163  0.1236765202429998  0.1244668565214520
  0.6264103504748163  0.1235283420694415  0.1227841347955494
  0.8760627480820506  0.1239197832519220  0.3755026989162095
  0.6261376691008587  0.1242857240917521  0.3772932600662309
  0.3738680417652870  0.1241714931196089  0.1224143958371246
  0.3742464695517607  0.1225589908680849  0.3767822807839627
  0.8756676782104276  0.1249549109903773  0.6242486146630972
  0.6253299250910502  0.1257642326282147  0.6240745444068190
  0.3748948564808068  0.1253063501012358  0.6256866122544993
  0.1235430678326708  0.1242179916918654  0.1244590224833505
  0.1233095797353721  0.1231954770097059  0.3750654112523575
  0.1244351483213661  0.3758961695156365  0.1241331242386615
  0.1237232429841157  0.3758440631520928  0.3742527892445134
  0.1241095916563132  0.1238944297640458  0.6255172397602430
  0.1253391010949847  0.3748113330359407  0.6265788656336020
  0.1237560543956089  0.6244690565207451  0.1258530226601385
  0.1259478348988392  0.6259812380217409  0.3739676247201085
  0.1247837707952671  0.6255570369471001  0.6247822766583546
  0.6248641422459761  0.1257521364355828  0.8757829097024087
  0.3740707344547518  0.1258237376952699  0.8749654467567640
  0.1253506727230819  0.3749180218433728  0.8751746222241750
  0.1235065804106971  0.6236507770595699  0.8753525357884128
  0.1237440733896422  0.8753012647312285  0.1257019287269964
  0.1247458242029100  0.8747625599165886  0.3752862355433612
  0.1237331222220303  0.8757525868094995  0.6243726915239445
  0.1232315639181755  0.8762149106649952  0.8748024900367534
 -0.0001755518001717 -0.0016740170808695  0.0017441587895331
 -0.0000659033982847 -0.0017073751108222  0.7485589733437594
 -0.0002645699199347  0.7500425705236887  0.7502642612886893
 -0.0003718064485024  0.7501715618075148 -0.0002018536931692
  0.7503348366770023  0.7506287587073307 -0.0000226493758458
  0.7498400701763708 -0.0011099497953583  0.0001983306951351
  0.0005235344332132  0.0002271205999702  0.5002139801334917
  0.0002255432866681  0.7499016140383866  0.5009115559034647
  0.7501701268323138  0.0002425976194770  0.5009574699755278
  0.0006113549914440  0.5011936357412293  0.7495004989958873
  0.0006806150121996  0.5011398875941103  0.0009844509833987
  0.5006390096545653  0.7497459302079431 -0.0009880838056379
  0.5005745750987046 -0.0001094764661127  0.5011623304079081
  0.5008048143654142  0.0005094631567340 -0.0010489187737033
  0.0006464943627593  0.0000516860211597  0.2496972225091423
  0.0002290072953232  0.7495635111515769  0.2492301046752359
  0.7503716052277590 -0.0001148383100569  0.2494081267982982
  0.0011785149384033  0.5008939439796339  0.2495800077464800
  0.0003613392210446  0.2492008768271949  0.2495298453666461
  0.0004463560497558  0.2491464363960575  0.5006393925051817
  0.0010615976403586  0.2506156211340058  0.7482129709607513
  0.0009580030543367  0.2505197803805725  0.0019454595700806
  0.7489609769542273  0.2497395946027452  0.0011585374239985
  0.5003677380861687  0.2496426693399340 -0.0014387031805444
  0.2500016458559787  0.2500179646089021 -0.0002086008768337
  0.2492642481828793  0.5007263456411305 -0.0004118461181097
  0.2482485697673500  0.0006551583002190  0.2503581495806671
  0.2488926858673672  0.0003188089501324  0.5008350623613916
  0.2508791271773279 -0.0006873335209413  0.7493126531908523
  0.2496921197290017 -0.0002994978654254 -0.0001907657734830
 
  0.00000000E+00  0.00000000E+00  0.00000000E+00
  0.00000000E+00  0.00000000E+00  0.00000000E+00
  0.00000000E+00  0.00000000E+00  0.00000000E+00
  0.00000000E+00  0.00000000E+00  0.00000000E+00
  0.00000000E+00  0.00000000E+00  0.00000000E+00
  0.00000000E+00  0.00000000E+00  0.00000000E+00
  0.00000000E+00  0.00000000E+00  0.00000000E+00
  0.00000000E+00  0.00000000E+00  0.00000000E+00
  0.00000000E+00  0.00000000E+00  0.00000000E+00
  0.00000000E+00  0.00000000E+00  0.00000000E+00
  0.00000000E+00  0.00000000E+00  0.00000000E+00
  0.00000000E+00  0.00000000E+00  0.00000000E+00
  0.00000000E+00  0.00000000E+00  0.00000000E+00
  0.00000000E+00  0.00000000E+00  0.00000000E+00
  0.00000000E+00  0.00000000E+00  0.00000000E+00
  0.00000000E+00  0.00000000E+00  0.00000000E+00
  0.00000000E+00  0.00000000E+00  0.00000000E+00
  0.00000000E+00  0.00000000E+00  0.00000000E+00
  0.00000000E+00  0.00000000E+00  0.00000000E+00
  0.00000000E+00  0.00000000E+00  0.00000000E+00
  0.00000000E+00  0.00000000E+00  0.00000000E+00
  0.00000000E+00  0.00000000E+00  0.00000000E+00
  0.00000000E+00  0.00000000E+00  0.00000000E+00
  0.00000000E+00  0.00000000E+00  0.00000000E+00
  0.00000000E+00  0.00000000E+00  0.00000000E+00
  0.00000000E+00  0.00000000E+00  0.00000000E+00
  0.00000000E+00  0.00000000E+00  0.00000000E+00
  0.00000000E+00  0.00000000E+00  0.00000000E+00
  0.00000000E+00  0.00000000E+00  0.00000000E+00
  0.00000000E+00  0.00000000E+00  0.00000000E+00
  0.00000000E+00  0.00000000E+00  0.00000000E+00
  0.00000000E+00  0.00000000E+00  0.00000000E+00
  0.00000000E+00  0.00000000E+00  0.00000000E+00
  0.00000000E+00  0.00000000E+00  0.00000000E+00
  0.00000000E+00  0.00000000E+00  0.00000000E+00
  0.00000000E+00  0.00000000E+00  0.00000000E+00
  0.00000000E+00  0.00000000E+00  0.00000000E+00
  0.00000000E+00  0.00000000E+00  0.00000000E+00
  0.00000000E+00  0.00000000E+00  0.00000000E+00
  0.00000000E+00  0.00000000E+00  0.00000000E+00
  0.00000000E+00  0.00000000E+00  0.00000000E+00
  0.00000000E+00  0.00000000E+00  0.00000000E+00
  0.00000000E+00  0.00000000E+00  0.00000000E+00
  0.00000000E+00  0.00000000E+00  0.00000000E+00
  0.00000000E+00  0.00000000E+00  0.00000000E+00
  0.00000000E+00  0.00000000E+00  0.00000000E+00
  0.00000000E+00  0.00000000E+00  0.00000000E+00
  0.00000000E+00  0.00000000E+00  0.00000000E+00
  0.00000000E+00  0.00000000E+00  0.00000000E+00
  0.00000000E+00  0.00000000E+00  0.00000000E+00
  0.00000000E+00  0.00000000E+00  0.00000000E+00
  0.00000000E+00  0.00000000E+00  0.00000000E+00
  0.00000000E+00  0.00000000E+00  0.00000000E+00
  0.00000000E+00  0.00000000E+00  0.00000000E+00
  0.00000000E+00  0.00000000E+00  0.00000000E+00
  0.00000000E+00  0.00000000E+00  0.00000000E+00
  0.00000000E+00  0.00000000E+00  0.00000000E+00
  0.00000000E+00  0.00000000E+00  0.00000000E+00
  0.00000000E+00  0.00000000E+00  0.00000000E+00
  0.00000000E+00  0.00000000E+00  0.00000000E+00
  0.00000000E+00  0.00000000E+00  0.00000000E+00
  0.00000000E+00  0.00000000E+00  0.00000000E+00
  0.00000000E+00  0.00000000E+00  0.00000000E+00
  0.00000000E+00  0.00000000E+00  0.00000000E+00
  0.00000000E+00  0.00000000E+00  0.00000000E+00
  0.00000000E+00  0.00000000E+00  0.00000000E+00
  0.00000000E+00  0.00000000E+00  0.00000000E+00
  0.00000000E+00  0.00000000E+00  0.00000000E+00
  0.00000000E+00  0.00000000E+00  0.00000000E+00
  0.00000000E+00  0.00000000E+00  0.00000000E+00
  0.00000000E+00  0.00000000E+00  0.00000000E+00
  0.00000000E+00  0.00000000E+00  0.00000000E+00
  0.00000000E+00  0.00000000E+00  0.00000000E+00
  0.00000000E+00  0.00000000E+00  0.00000000E+00
  0.00000000E+00  0.00000000E+00  0.00000000E+00
  0.00000000E+00  0.00000000E+00  0.00000000E+00
  0.00000000E+00  0.00000000E+00  0.00000000E+00
  0.00000000E+00  0.00000000E+00  0.00000000E+00
  0.00000000E+00  0.00000000E+00  0.00000000E+00
  0.00000000E+00  0.00000000E+00  0.00000000E+00
  0.00000000E+00  0.00000000E+00  0.00000000E+00
  0.00000000E+00  0.00000000E+00  0.00000000E+00
  0.00000000E+00  0.00000000E+00  0.00000000E+00
  0.00000000E+00  0.00000000E+00  0.00000000E+00
  0.00000000E+00  0.00000000E+00  0.00000000E+00
  0.00000000E+00  0.00000000E+00  0.00000000E+00
  0.00000000E+00  0.00000000E+00  0.00000000E+00
  0.00000000E+00  0.00000000E+00  0.00000000E+00
  0.00000000E+00  0.00000000E+00  0.00000000E+00
  0.00000000E+00  0.00000000E+00  0.00000000E+00
  0.00000000E+00  0.00000000E+00  0.00000000E+00
  0.00000000E+00  0.00000000E+00  0.00000000E+00
  0.00000000E+00  0.00000000E+00  0.00000000E+00
  0.00000000E+00  0.00000000E+00  0.00000000E+00
  0.00000000E+00  0.00000000E+00  0.00000000E+00
  0.00000000E+00  0.00000000E+00  0.00000000E+00
  0.00000000E+00  0.00000000E+00  0.00000000E+00
  0.00000000E+00  0.00000000E+00  0.00000000E+00
  0.00000000E+00  0.00000000E+00  0.00000000E+00
  0.00000000E+00  0.00000000E+00  0.00000000E+00
  0.00000000E+00  0.00000000E+00  0.00000000E+00
  0.00000000E+00  0.00000000E+00  0.00000000E+00
  0.00000000E+00  0.00000000E+00  0.00000000E+00
  0.00000000E+00  0.00000000E+00  0.00000000E+00
  0.00000000E+00  0.00000000E+00  0.00000000E+00
  0.00000000E+00  0.00000000E+00  0.00000000E+00
  0.00000000E+00  0.00000000E+00  0.00000000E+00
  0.00000000E+00  0.00000000E+00  0.00000000E+00
  0.00000000E+00  0.00000000E+00  0.00000000E+00
  0.00000000E+00  0.00000000E+00  0.00000000E+00
  0.00000000E+00  0.00000000E+00  0.00000000E+00
  0.00000000E+00  0.00000000E+00  0.00000000E+00
  0.00000000E+00  0.00000000E+00  0.00000000E+00
  0.00000000E+00  0.00000000E+00  0.00000000E+00
  0.00000000E+00  0.00000000E+00  0.00000000E+00
  0.00000000E+00  0.00000000E+00  0.00000000E+00
  0.00000000E+00  0.00000000E+00  0.00000000E+00
  0.00000000E+00  0.00000000E+00  0.00000000E+00
  0.00000000E+00  0.00000000E+00  0.00000000E+00
  0.00000000E+00  0.00000000E+00  0.00000000E+00
  0.00000000E+00  0.00000000E+00  0.00000000E+00
  0.00000000E+00  0.00000000E+00  0.00000000E+00
  0.00000000E+00  0.00000000E+00  0.00000000E+00
  0.00000000E+00  0.00000000E+00  0.00000000E+00
  0.00000000E+00  0.00000000E+00  0.00000000E+00
  0.00000000E+00  0.00000000E+00  0.00000000E+00
  0.00000000E+00  0.00000000E+00  0.00000000E+00
  0.00000000E+00  0.00000000E+00  0.00000000E+00
