#BCC aalvarado POSCAR generator         
    12.76000000000000     
     1.0273799655691653   -0.0000318838286439   -0.0001783840214575
    -0.0000318918443290    1.0273877345638429   -0.0001235074356363
    -0.0001784869733503   -0.0001235142051542    1.0272670279104024
   Ta   W 
   102    26
Direct
  0.6228330144560700  0.6228885434594928  0.6229918428062564
  0.6216461658385677  0.6255433305987883  0.3756459747916958
  0.3764336256027005  0.3778724269089833  0.3769860794118871
  0.6235912992150781  0.3777507185554206  0.6238794839897412
  0.3788375843131744  0.6241371578657554  0.3751560185117677
  0.3791962896392641  0.6246023287718413  0.6249756441575891
  0.7496151937483778  0.7500510649630446  0.7554149514190402
  0.7503853330309238  0.7501398056297912  0.4999086603907527
  0.7493251791713288  0.4981831086601907  0.4974043601445720
  0.7484714656981291  0.5022338068011623  0.7551829537156799
  0.5014482671953372  0.4984459457403472  0.7532773278807057
  0.4991728564347326  0.7513519700973359  0.5018272753561601
  0.5022825197828068  0.7519913750850101  0.7557022003788170
  0.7477316430328274  0.7477912940220285  0.2481759976486730
  0.7465638068498497  0.4997718390886130  0.2490101845163571
  0.5012647642550663  0.4970619771100604  0.2472748752203583
  0.7442585536259224  0.2480338488190290  0.2507287405658463
  0.5001051766879467  0.2479989780687846  0.2508881206045954
  0.7443208818579991  0.2486358570357632  0.4982902459411304
  0.4998900815883796  0.2475497317843499  0.4987900392397152
  0.2533144569479873  0.2508652423398139  0.2490789571799070
  0.2526323728246985  0.2516659515325765  0.5013015404991680
  0.2514055884940610  0.4973693786148055  0.2471982177421615
  0.2481971401728388  0.4994380605884450  0.5040714385267213
  0.7440826665560238  0.2484223345694073  0.7510431170476846
  0.5002647519951438  0.2483063587950543  0.7512628931067168
  0.2525300645395279  0.2523713547151913  0.7487431230910954
  0.2489582481623731  0.4991691542274756  0.7460592292912930
  0.2529743434959292  0.7521086066184917  0.2478386175120497
  0.2480513512563068  0.7478746467961539  0.5019664375055767
  0.2510180136968493  0.7490655332005739  0.7508407685851006
  0.8732755898903146  0.8754773930072077  0.6248118060767442
  0.8719383753920883  0.6244414666502454  0.6244979436858817
  0.6237808468670937  0.8739506705570544  0.6244857822327915
  0.8755744200078741  0.8735190601017933  0.3726083380235978
  0.8762553959103460  0.6255100960274560  0.3726472420802854
  0.6225069380645191  0.8716315266692587  0.3728552713597445
  0.8750771461319429  0.3749653667188759  0.3744424641075018
  0.8716602067915350  0.3747417741256495  0.6254941633952404
  0.8757826037770405  0.3733550161749173  0.8747504070011202
  0.3748827776812578  0.3757903384462766  0.8748125778125565
  0.3746227430639779  0.6235802505907244  0.8756431566513702
  0.3774339308579353  0.8719290346842663  0.3744196836980863
  0.3742374403608364  0.8774074820113161  0.6271475417342263
  0.8730874256416534  0.8721160412982141  0.1251902917733575
  0.8747123866684408  0.6274840039617759  0.1256040852599744
  0.6252374126627492  0.8719717258115750  0.1260819863918591
  0.8717123363599159  0.3747986870434720  0.1237448124909555
  0.6262037777210054  0.3742678589707258  0.1242959765887592
  0.3773466295183233  0.6266648510331773  0.1261899830455133
  0.8750731050451986  0.1248299759570660  0.1234457740059196
  0.8757955164019371  0.1256375951266371  0.3745850027196956
  0.3730264121625375  0.1230357930595552  0.1218193224755872
  0.8748015061452362  0.1257664120053451  0.6260106672314277
  0.3727070660734110  0.1226750511679118  0.6281833897581673
  0.1276728136537543  0.1211811357072391  0.1216488116836400
  0.1249426514141194  0.1258933703237211  0.3749004246009100
  0.1266890154905785  0.3749598956511167  0.3750697535961345
  0.1275842826940937  0.1224861714609650  0.6276378403354718
  0.1241961028752978  0.6292649905256391  0.1256639576699192
  0.1242108475752312  0.6262663097864060  0.3709501079681539
  0.8758431800574397  0.1269453397270261  0.8746286186327603
  0.1277050873157775  0.1224201903489002  0.8747213423548524
  0.1258909424159554  0.3748939665613488  0.8749382564772568
  0.1276983613098847  0.6259226556472780  0.8775089734987020
  0.1244716266004551  0.8756867112078556  0.1236941661261061
  0.1241160769970045  0.8736637102772422  0.3726661642436997
  0.1275790528293741  0.8783731561657357  0.6284605757730375
  0.1288650191440679  0.8786880926356149  0.8753767771455957
 -0.0036619393756503 -0.0031039625428751 -0.0023295594028441
 -0.0033405406181571 -0.0026034949685867  0.7519582683715614
 -0.0021536061304470  0.7487506594972240  0.7521853683394322
 -0.0034125936911511  0.7507168338823118 -0.0047271799872624
  0.7460631579904168 -0.0005802837864289  0.7531408064262313
  0.7462002802558012 -0.0007586775278331 -0.0021545819867627
  0.0000717085316424 -0.0000311090778713  0.5004700547103208
  0.0021424489691215  0.7477754826215977  0.5039522837828132
  0.7455537843570863  0.0030401551163604  0.4997094458898114
  0.0032188809846613  0.5001680540399746  0.5030753568805848
  0.0012635273606976  0.5028405933607852  0.7488157006589816
 -0.0006226794944386  0.5018289355348988 -0.0006445444074523
  0.7475321562019737  0.5031442998696087 -0.0024747899137653
  0.5030305733114016  0.5001574873557173  0.0004822682123458
  0.5018305136781172  0.7517330353164506 -0.0012785604471697
  0.5004504380339788  0.0045178338300659  0.4986160193353273
  0.5021128639071128  0.0013212627522681  0.7548719201944657
  0.5011888314905560 -0.0007779377610173 -0.0017867241752931
 -0.0004895726445392  0.0010413132156340  0.2488660775987248
  0.7454858227311157  0.0026406799345759  0.2488077349625085
  0.0017390149584495  0.4973106273056128  0.2474976349636696
  0.4998294145247307  0.0031207756619122  0.2488120890135125
  0.0027206627757339  0.2515950251476234  0.2479248219694462
  0.0025289779771981  0.2524891522705954  0.5019391882128310
  0.0024272205072583  0.2521833900116524  0.7481931834659975
  0.0024515244820499  0.2514446132296715  0.0010068061205247
  0.7442727468516825  0.2476164594515609 -0.0016899411387225
  0.5006404028686784  0.2476774857131090 -0.0011206533069552
  0.2530477904713611  0.2515293470933642  0.0011122780923923
  0.2510564502018248  0.4976923294945932  0.0037010887240566
  0.2546244919829643  0.7533849167455413  0.0003302115035155
  0.2546281851222202  0.0001061673359442  0.2504402010600182
  0.2527575275396368  0.0019029196293635  0.4966573811532734
  0.2538432133119929  0.0004782001118117  0.7529226074559242
  0.2550595604221066 -0.0007863063962362 -0.0005322641503616
  0.4993739318922383  0.4965792576695340  0.5000166431543530
  0.6227704521121735  0.3768996842509676  0.3758859752240503
  0.3783991052658658  0.3753071048376446  0.6243835223962625
  0.5002549083968236  0.7496054073928344  0.2463770868794524
  0.8733608294995456  0.8747306624090405  0.8765312321770414
  0.8739565331933764  0.6256631721668529  0.8768096042158067
  0.6250795718262230  0.6265190203320322  0.8768335161667602
  0.6253425171894788  0.8738132380948141  0.8775490550936391
  0.6237673825056941  0.3749537779017260  0.8749490257013063
  0.3737047734207785  0.8773684687022208  0.8753065140529055
  0.6246865261861018  0.6268587240722151  0.1255102846298852
  0.3777760246442546  0.3742017151011833  0.1249278423181393
  0.3767715154110481  0.8754438819650769  0.1245227088034142
  0.6231679746265366  0.1240488890659337  0.1241418921302214
  0.6241191052198355  0.1244094947459662  0.3744744493565272
  0.3746400603905140  0.1258542552375596  0.3746609498701692
  0.6229266980053979  0.1255160610666603  0.6256146730112006
  0.1251385506032176  0.3747705075141756  0.1244049512879425
  0.1253044450507221  0.3740519007221231  0.6254296638001510
  0.1256406385942766  0.6260543605239777  0.6260402001274553
  0.6238357585625958  0.1243267375774649  0.8751383552175145
  0.3727682222359591  0.1236201167228465  0.8753529988039447
  0.7482614162926591  0.7490332148944701 -0.0026625838247752
 -0.0001379307089268  0.7499191852733378  0.2485026847395393
 
  0.00000000E+00  0.00000000E+00  0.00000000E+00
  0.00000000E+00  0.00000000E+00  0.00000000E+00
  0.00000000E+00  0.00000000E+00  0.00000000E+00
  0.00000000E+00  0.00000000E+00  0.00000000E+00
  0.00000000E+00  0.00000000E+00  0.00000000E+00
  0.00000000E+00  0.00000000E+00  0.00000000E+00
  0.00000000E+00  0.00000000E+00  0.00000000E+00
  0.00000000E+00  0.00000000E+00  0.00000000E+00
  0.00000000E+00  0.00000000E+00  0.00000000E+00
  0.00000000E+00  0.00000000E+00  0.00000000E+00
  0.00000000E+00  0.00000000E+00  0.00000000E+00
  0.00000000E+00  0.00000000E+00  0.00000000E+00
  0.00000000E+00  0.00000000E+00  0.00000000E+00
  0.00000000E+00  0.00000000E+00  0.00000000E+00
  0.00000000E+00  0.00000000E+00  0.00000000E+00
  0.00000000E+00  0.00000000E+00  0.00000000E+00
  0.00000000E+00  0.00000000E+00  0.00000000E+00
  0.00000000E+00  0.00000000E+00  0.00000000E+00
  0.00000000E+00  0.00000000E+00  0.00000000E+00
  0.00000000E+00  0.00000000E+00  0.00000000E+00
  0.00000000E+00  0.00000000E+00  0.00000000E+00
  0.00000000E+00  0.00000000E+00  0.00000000E+00
  0.00000000E+00  0.00000000E+00  0.00000000E+00
  0.00000000E+00  0.00000000E+00  0.00000000E+00
  0.00000000E+00  0.00000000E+00  0.00000000E+00
  0.00000000E+00  0.00000000E+00  0.00000000E+00
  0.00000000E+00  0.00000000E+00  0.00000000E+00
  0.00000000E+00  0.00000000E+00  0.00000000E+00
  0.00000000E+00  0.00000000E+00  0.00000000E+00
  0.00000000E+00  0.00000000E+00  0.00000000E+00
  0.00000000E+00  0.00000000E+00  0.00000000E+00
  0.00000000E+00  0.00000000E+00  0.00000000E+00
  0.00000000E+00  0.00000000E+00  0.00000000E+00
  0.00000000E+00  0.00000000E+00  0.00000000E+00
  0.00000000E+00  0.00000000E+00  0.00000000E+00
  0.00000000E+00  0.00000000E+00  0.00000000E+00
  0.00000000E+00  0.00000000E+00  0.00000000E+00
  0.00000000E+00  0.00000000E+00  0.00000000E+00
  0.00000000E+00  0.00000000E+00  0.00000000E+00
  0.00000000E+00  0.00000000E+00  0.00000000E+00
  0.00000000E+00  0.00000000E+00  0.00000000E+00
  0.00000000E+00  0.00000000E+00  0.00000000E+00
  0.00000000E+00  0.00000000E+00  0.00000000E+00
  0.00000000E+00  0.00000000E+00  0.00000000E+00
  0.00000000E+00  0.00000000E+00  0.00000000E+00
  0.00000000E+00  0.00000000E+00  0.00000000E+00
  0.00000000E+00  0.00000000E+00  0.00000000E+00
  0.00000000E+00  0.00000000E+00  0.00000000E+00
  0.00000000E+00  0.00000000E+00  0.00000000E+00
  0.00000000E+00  0.00000000E+00  0.00000000E+00
  0.00000000E+00  0.00000000E+00  0.00000000E+00
  0.00000000E+00  0.00000000E+00  0.00000000E+00
  0.00000000E+00  0.00000000E+00  0.00000000E+00
  0.00000000E+00  0.00000000E+00  0.00000000E+00
  0.00000000E+00  0.00000000E+00  0.00000000E+00
  0.00000000E+00  0.00000000E+00  0.00000000E+00
  0.00000000E+00  0.00000000E+00  0.00000000E+00
  0.00000000E+00  0.00000000E+00  0.00000000E+00
  0.00000000E+00  0.00000000E+00  0.00000000E+00
  0.00000000E+00  0.00000000E+00  0.00000000E+00
  0.00000000E+00  0.00000000E+00  0.00000000E+00
  0.00000000E+00  0.00000000E+00  0.00000000E+00
  0.00000000E+00  0.00000000E+00  0.00000000E+00
  0.00000000E+00  0.00000000E+00  0.00000000E+00
  0.00000000E+00  0.00000000E+00  0.00000000E+00
  0.00000000E+00  0.00000000E+00  0.00000000E+00
  0.00000000E+00  0.00000000E+00  0.00000000E+00
  0.00000000E+00  0.00000000E+00  0.00000000E+00
  0.00000000E+00  0.00000000E+00  0.00000000E+00
  0.00000000E+00  0.00000000E+00  0.00000000E+00
  0.00000000E+00  0.00000000E+00  0.00000000E+00
  0.00000000E+00  0.00000000E+00  0.00000000E+00
  0.00000000E+00  0.00000000E+00  0.00000000E+00
  0.00000000E+00  0.00000000E+00  0.00000000E+00
  0.00000000E+00  0.00000000E+00  0.00000000E+00
  0.00000000E+00  0.00000000E+00  0.00000000E+00
  0.00000000E+00  0.00000000E+00  0.00000000E+00
  0.00000000E+00  0.00000000E+00  0.00000000E+00
  0.00000000E+00  0.00000000E+00  0.00000000E+00
  0.00000000E+00  0.00000000E+00  0.00000000E+00
  0.00000000E+00  0.00000000E+00  0.00000000E+00
  0.00000000E+00  0.00000000E+00  0.00000000E+00
  0.00000000E+00  0.00000000E+00  0.00000000E+00
  0.00000000E+00  0.00000000E+00  0.00000000E+00
  0.00000000E+00  0.00000000E+00  0.00000000E+00
  0.00000000E+00  0.00000000E+00  0.00000000E+00
  0.00000000E+00  0.00000000E+00  0.00000000E+00
  0.00000000E+00  0.00000000E+00  0.00000000E+00
  0.00000000E+00  0.00000000E+00  0.00000000E+00
  0.00000000E+00  0.00000000E+00  0.00000000E+00
  0.00000000E+00  0.00000000E+00  0.00000000E+00
  0.00000000E+00  0.00000000E+00  0.00000000E+00
  0.00000000E+00  0.00000000E+00  0.00000000E+00
  0.00000000E+00  0.00000000E+00  0.00000000E+00
  0.00000000E+00  0.00000000E+00  0.00000000E+00
  0.00000000E+00  0.00000000E+00  0.00000000E+00
  0.00000000E+00  0.00000000E+00  0.00000000E+00
  0.00000000E+00  0.00000000E+00  0.00000000E+00
  0.00000000E+00  0.00000000E+00  0.00000000E+00
  0.00000000E+00  0.00000000E+00  0.00000000E+00
  0.00000000E+00  0.00000000E+00  0.00000000E+00
  0.00000000E+00  0.00000000E+00  0.00000000E+00
  0.00000000E+00  0.00000000E+00  0.00000000E+00
  0.00000000E+00  0.00000000E+00  0.00000000E+00
  0.00000000E+00  0.00000000E+00  0.00000000E+00
  0.00000000E+00  0.00000000E+00  0.00000000E+00
  0.00000000E+00  0.00000000E+00  0.00000000E+00
  0.00000000E+00  0.00000000E+00  0.00000000E+00
  0.00000000E+00  0.00000000E+00  0.00000000E+00
  0.00000000E+00  0.00000000E+00  0.00000000E+00
  0.00000000E+00  0.00000000E+00  0.00000000E+00
  0.00000000E+00  0.00000000E+00  0.00000000E+00
  0.00000000E+00  0.00000000E+00  0.00000000E+00
  0.00000000E+00  0.00000000E+00  0.00000000E+00
  0.00000000E+00  0.00000000E+00  0.00000000E+00
  0.00000000E+00  0.00000000E+00  0.00000000E+00
  0.00000000E+00  0.00000000E+00  0.00000000E+00
  0.00000000E+00  0.00000000E+00  0.00000000E+00
  0.00000000E+00  0.00000000E+00  0.00000000E+00
  0.00000000E+00  0.00000000E+00  0.00000000E+00
  0.00000000E+00  0.00000000E+00  0.00000000E+00
  0.00000000E+00  0.00000000E+00  0.00000000E+00
  0.00000000E+00  0.00000000E+00  0.00000000E+00
  0.00000000E+00  0.00000000E+00  0.00000000E+00
  0.00000000E+00  0.00000000E+00  0.00000000E+00
  0.00000000E+00  0.00000000E+00  0.00000000E+00
  0.00000000E+00  0.00000000E+00  0.00000000E+00
  0.00000000E+00  0.00000000E+00  0.00000000E+00
