#generated using str2pos                
    1.000000000000000     
    13.0149941761180425   -0.0017944597926621    0.0151894849410854
    -0.0017936180975749   13.0286290652257257    0.0052144990598765
     0.0151885980697558    0.0052160098231590   13.0108231427848757
   Ta   W 
    83    45
Direct
  0.2540126443186022  0.2529634171829366  0.2513295026004124
  0.1237133366252535  0.1274637509129811  0.1244183221393312
  0.5019138945905662  0.2535074822765991  0.2495880348167626
  0.3742936076627700  0.1242743405973665  0.1221693080200058
  0.7487200050730235  0.2522933915728480  0.2485653865437864
  0.2513380067744391  0.5012896355022755  0.2502238332952940
  0.1234711948553984  0.3707118628804593  0.1242683358908661
  0.4984406760914972  0.4986975222914505  0.2494142084596814
  0.7468995997010009  0.4954619722150694  0.2499075141475370
 -0.0014209250856485  0.4995145734315824  0.2508260530945088
  0.2513762314131296  0.7442747743945097  0.2497124214097120
  0.4971259976503316  0.7450132431114870  0.2484244980582807
  0.8735361433058096  0.6285274400862372  0.1290579213562434
  0.2516650424556934 -0.0001387756900521  0.2485305610772443
  0.1224098283819529  0.8760565391255850  0.1287082790498229
  0.5028428803810535  0.0014778974081150  0.2479646386717358
  0.3778299987204732  0.8751573533891657  0.1204198368046616
  0.7484156858910970  0.0047187424072204  0.2464048348872748
  0.6239912990779046  0.8733357529934320  0.1230592713050966
  0.8760044996128770  0.8733987922554179  0.1297707742639005
  0.2556546339587160  0.2523156195237065  0.5008108805726451
  0.1232369690579971  0.1250249442622893  0.3754838539358276
  0.5007361939252239  0.2525381040221578  0.5020180430791846
  0.3763837897962983  0.1213423769949216  0.3761980447490491
  0.7465733048561293  0.2528033211807330  0.4993195889724505
  0.6250640099209318  0.1216029686309648  0.3776181525677297
  0.8766335103771581  0.1243193840452215  0.3763144675606944
  0.2510405457701785  0.5009602965976581  0.4987851962928341
  0.1224538616800283  0.3715579465889892  0.3754346755371546
  0.4989372145195289  0.4955418006709396  0.4980447114691163
  0.7474196447884539  0.4954180358733513  0.4990356364957098
  0.0002995327822376  0.5032359540863127  0.4979084056174984
  0.2463244160751822  0.7469273915859971  0.4994225249002767
  0.6262756259561998  0.6290472785671353  0.3767900937732149
  0.0034034992156011  0.7505744695810896  0.5041407214179274
  0.8712391732108183  0.6302034997871448  0.3749005044656197
  0.1241068494489233  0.8773245349782773  0.3722592424691300
  0.3766060156645853  0.8763467830717994  0.3786605402206360
  0.6265614582363690  0.8737285532543161  0.3780732201263273
  0.0002401140792613 -0.0039883401221078  0.5042774656855378
  0.8734552150673743  0.8748141292268306  0.3737740949541954
  0.2557088202943801  0.2486226517791024  0.7476615270319802
  0.1239884527763970  0.1278451284520049  0.6242512499028765
  0.4999657589593560  0.2497755534685168  0.7475937324619903
  0.8764331570124689  0.1284281546411747  0.6251100591150437
  0.2507836795321268  0.5026627370546689  0.7499754341704604
  0.1202387626141450  0.3733325225660977  0.6268292838079277
  0.4996724811531782  0.4959273656530110  0.7500663935346187
  0.7455859948981594  0.4970026305738790  0.7502357174787901
  0.8779806134798994  0.3731783273737638  0.6284022234282099
  0.2460059989504066  0.7492292437977817  0.7509836842649147
  0.3794429446543629  0.6288765959846027  0.6251725039098432
  0.6242354628426761  0.6304271861315203  0.6246110533398442
  0.0031692795566577  0.7527351718506184  0.7503923488914613
  0.8715720142858603  0.6252359459892921  0.6264583158417109
  0.2506683851856084 -0.0003754562971203  0.7502356327461068
  0.5006242903873670  0.0053023943656229  0.7476451852266490
  0.3793170130052158  0.8734743136777913  0.6225708348254375
  0.7525188697338445 -0.0005717899710459  0.7492599144934763
  0.6250633531915413  0.8728688299377945  0.6224009375530175
  0.0009390227202743 -0.0060548112228079  0.7502209362119810
  0.1231822356955196  0.1301774080896348  0.8753576958975027
  0.5024537975585130  0.2520996751621573  0.0006295481966663
  0.7479280513852776  0.2517107005156594  0.0041646960796268
  0.6271271704887745  0.1245491161783603  0.8740373836454850
  0.8768649310340436  0.1306384310368733  0.8729855025147273
  0.2500514515309119  0.5037448355739267  0.0014736248309856
  0.1229622697325943  0.3722151508497295  0.8755051437136335
  0.4992001554141805  0.4989028980056698  0.0027439421356386
  0.3714808167672428  0.3741859810840733  0.8771784789064012
  0.7464187951463435  0.4973546729258052  0.0032455316759045
  0.0003350746165527  0.5023886547903420  0.0035373421488670
  0.8781264802348420  0.3734268276917019  0.8735798561786602
  0.2478863298068104  0.7465172070040057 -0.0013969289498800
  0.7513413021984028  0.7502425573084228 -0.0004455248729429
  0.6239450485496694  0.6287102057431362  0.8731127851798295
  0.0026081692893925  0.7501603154038905 -0.0034078923325941
  0.8730485728495615  0.6229644496550554  0.8723924527633575
  0.2484789353112488 -0.0017694634447632 -0.0044497796765937
  0.3804832689421348  0.8731431078067878  0.8745472397315017
  0.7533584624506581  0.0014537229774201  0.0001718296123944
  0.6222461133899800  0.8728869118326199  0.8739458542591583
 -0.0015946699205626 -0.0022424496325264 -0.0028960779925123
  0.6240265782834352  0.1238033542108651  0.1234295934361384
 -0.0041286408206477  0.2515452614226140  0.2495893004460121
  0.8783899651339405  0.1260607637942362  0.1260030177440415
  0.3722742424046964  0.3736035559803239  0.1231519656548484
  0.6241667450799003  0.3754222443305493  0.1254591175127205
  0.8766744270625140  0.3737816339015335  0.1253134787299095
  0.1228124937025829  0.6251841688027971  0.1262527523388910
  0.3755954448701209  0.6251568230793991  0.1235992073358790
  0.7473344747457196  0.7494165525925804  0.2489726657554810
  0.6248341008163311  0.6269447642593430  0.1254500104646304
  0.0023726678451324  0.7478155858532597  0.2512340516628482
 -0.0020816487611322  0.0020214897513150  0.2491363722189944
 -0.0016908370548798  0.2509520568822838  0.4986422158917416
  0.3739452462673592  0.3747076541394627  0.3743911934707491
  0.6243839028559550  0.3750751208457111  0.3749971540876687
  0.8767096334592899  0.3729762899999848  0.3757174654046961
  0.1227836640637218  0.6253338597464714  0.3744156867031681
  0.4984987140223520  0.7484453441311103  0.4978003422599479
  0.3767856188682122  0.6258523085066294  0.3765757848382456
  0.7520471196536070  0.7513530983442400  0.5013286406771348
  0.2497077110839411 -0.0004910327614264  0.5026178332913372
  0.5012136469873985  0.0025137932115191  0.5016742897581646
  0.7513505713853775  0.0012086254602717  0.5024481128620256
  0.3758064121450431  0.1216204613100634  0.6223683161864426
  0.7460460822355682  0.2505705873878781  0.7493841579071141
  0.6277217097666802  0.1228579804533082  0.6238652859338147
  0.0006962688414494  0.2497001127976562  0.7505555742099015
  0.3743203161605325  0.3762640046106657  0.6256850760454720
  0.6266129107185255  0.3741172821975908  0.6261049929697557
  0.0018088171317261  0.5038413626333034  0.7507730819460584
  0.1241539199158294  0.6226373351631589  0.6263028903134537
  0.4989192748149466  0.7492402401124229  0.7506213044681568
  0.7533828028038940  0.7526390937051127  0.7503884941441580
  0.1278183388972283  0.8765577748021568  0.6231902119853029
  0.8715079322852339  0.8742225215267050  0.6234180759435348
  0.2526104773882777  0.2504188297390598 -0.0001287232071776
  0.3757565196835994  0.1248196950341244  0.8765902253471477
 -0.0032005999390317  0.2502130510399263  0.0030314606628202
  0.6258085393467819  0.3739788826866545  0.8746180109575056
  0.1233660015814518  0.6224263995238072  0.8742733733172308
  0.4986406548655292  0.7454226905357862  0.0011407648554090
  0.3777309572395201  0.6266717457747236  0.8739902187240046
  0.1267282960542868  0.8753857615200921  0.8753582791383785
  0.5013480282764134  0.0027473494172866 -0.0018782783837268
  0.8733381542411389  0.8739411484267744  0.8740236813528921
 
  0.00000000E+00  0.00000000E+00  0.00000000E+00
  0.00000000E+00  0.00000000E+00  0.00000000E+00
  0.00000000E+00  0.00000000E+00  0.00000000E+00
  0.00000000E+00  0.00000000E+00  0.00000000E+00
  0.00000000E+00  0.00000000E+00  0.00000000E+00
  0.00000000E+00  0.00000000E+00  0.00000000E+00
  0.00000000E+00  0.00000000E+00  0.00000000E+00
  0.00000000E+00  0.00000000E+00  0.00000000E+00
  0.00000000E+00  0.00000000E+00  0.00000000E+00
  0.00000000E+00  0.00000000E+00  0.00000000E+00
  0.00000000E+00  0.00000000E+00  0.00000000E+00
  0.00000000E+00  0.00000000E+00  0.00000000E+00
  0.00000000E+00  0.00000000E+00  0.00000000E+00
  0.00000000E+00  0.00000000E+00  0.00000000E+00
  0.00000000E+00  0.00000000E+00  0.00000000E+00
  0.00000000E+00  0.00000000E+00  0.00000000E+00
  0.00000000E+00  0.00000000E+00  0.00000000E+00
  0.00000000E+00  0.00000000E+00  0.00000000E+00
  0.00000000E+00  0.00000000E+00  0.00000000E+00
  0.00000000E+00  0.00000000E+00  0.00000000E+00
  0.00000000E+00  0.00000000E+00  0.00000000E+00
  0.00000000E+00  0.00000000E+00  0.00000000E+00
  0.00000000E+00  0.00000000E+00  0.00000000E+00
  0.00000000E+00  0.00000000E+00  0.00000000E+00
  0.00000000E+00  0.00000000E+00  0.00000000E+00
  0.00000000E+00  0.00000000E+00  0.00000000E+00
  0.00000000E+00  0.00000000E+00  0.00000000E+00
  0.00000000E+00  0.00000000E+00  0.00000000E+00
  0.00000000E+00  0.00000000E+00  0.00000000E+00
  0.00000000E+00  0.00000000E+00  0.00000000E+00
  0.00000000E+00  0.00000000E+00  0.00000000E+00
  0.00000000E+00  0.00000000E+00  0.00000000E+00
  0.00000000E+00  0.00000000E+00  0.00000000E+00
  0.00000000E+00  0.00000000E+00  0.00000000E+00
  0.00000000E+00  0.00000000E+00  0.00000000E+00
  0.00000000E+00  0.00000000E+00  0.00000000E+00
  0.00000000E+00  0.00000000E+00  0.00000000E+00
  0.00000000E+00  0.00000000E+00  0.00000000E+00
  0.00000000E+00  0.00000000E+00  0.00000000E+00
  0.00000000E+00  0.00000000E+00  0.00000000E+00
  0.00000000E+00  0.00000000E+00  0.00000000E+00
  0.00000000E+00  0.00000000E+00  0.00000000E+00
  0.00000000E+00  0.00000000E+00  0.00000000E+00
  0.00000000E+00  0.00000000E+00  0.00000000E+00
  0.00000000E+00  0.00000000E+00  0.00000000E+00
  0.00000000E+00  0.00000000E+00  0.00000000E+00
  0.00000000E+00  0.00000000E+00  0.00000000E+00
  0.00000000E+00  0.00000000E+00  0.00000000E+00
  0.00000000E+00  0.00000000E+00  0.00000000E+00
  0.00000000E+00  0.00000000E+00  0.00000000E+00
  0.00000000E+00  0.00000000E+00  0.00000000E+00
  0.00000000E+00  0.00000000E+00  0.00000000E+00
  0.00000000E+00  0.00000000E+00  0.00000000E+00
  0.00000000E+00  0.00000000E+00  0.00000000E+00
  0.00000000E+00  0.00000000E+00  0.00000000E+00
  0.00000000E+00  0.00000000E+00  0.00000000E+00
  0.00000000E+00  0.00000000E+00  0.00000000E+00
  0.00000000E+00  0.00000000E+00  0.00000000E+00
  0.00000000E+00  0.00000000E+00  0.00000000E+00
  0.00000000E+00  0.00000000E+00  0.00000000E+00
  0.00000000E+00  0.00000000E+00  0.00000000E+00
  0.00000000E+00  0.00000000E+00  0.00000000E+00
  0.00000000E+00  0.00000000E+00  0.00000000E+00
  0.00000000E+00  0.00000000E+00  0.00000000E+00
  0.00000000E+00  0.00000000E+00  0.00000000E+00
  0.00000000E+00  0.00000000E+00  0.00000000E+00
  0.00000000E+00  0.00000000E+00  0.00000000E+00
  0.00000000E+00  0.00000000E+00  0.00000000E+00
  0.00000000E+00  0.00000000E+00  0.00000000E+00
  0.00000000E+00  0.00000000E+00  0.00000000E+00
  0.00000000E+00  0.00000000E+00  0.00000000E+00
  0.00000000E+00  0.00000000E+00  0.00000000E+00
  0.00000000E+00  0.00000000E+00  0.00000000E+00
  0.00000000E+00  0.00000000E+00  0.00000000E+00
  0.00000000E+00  0.00000000E+00  0.00000000E+00
  0.00000000E+00  0.00000000E+00  0.00000000E+00
  0.00000000E+00  0.00000000E+00  0.00000000E+00
  0.00000000E+00  0.00000000E+00  0.00000000E+00
  0.00000000E+00  0.00000000E+00  0.00000000E+00
  0.00000000E+00  0.00000000E+00  0.00000000E+00
  0.00000000E+00  0.00000000E+00  0.00000000E+00
  0.00000000E+00  0.00000000E+00  0.00000000E+00
  0.00000000E+00  0.00000000E+00  0.00000000E+00
  0.00000000E+00  0.00000000E+00  0.00000000E+00
  0.00000000E+00  0.00000000E+00  0.00000000E+00
  0.00000000E+00  0.00000000E+00  0.00000000E+00
  0.00000000E+00  0.00000000E+00  0.00000000E+00
  0.00000000E+00  0.00000000E+00  0.00000000E+00
  0.00000000E+00  0.00000000E+00  0.00000000E+00
  0.00000000E+00  0.00000000E+00  0.00000000E+00
  0.00000000E+00  0.00000000E+00  0.00000000E+00
  0.00000000E+00  0.00000000E+00  0.00000000E+00
  0.00000000E+00  0.00000000E+00  0.00000000E+00
  0.00000000E+00  0.00000000E+00  0.00000000E+00
  0.00000000E+00  0.00000000E+00  0.00000000E+00
  0.00000000E+00  0.00000000E+00  0.00000000E+00
  0.00000000E+00  0.00000000E+00  0.00000000E+00
  0.00000000E+00  0.00000000E+00  0.00000000E+00
  0.00000000E+00  0.00000000E+00  0.00000000E+00
  0.00000000E+00  0.00000000E+00  0.00000000E+00
  0.00000000E+00  0.00000000E+00  0.00000000E+00
  0.00000000E+00  0.00000000E+00  0.00000000E+00
  0.00000000E+00  0.00000000E+00  0.00000000E+00
  0.00000000E+00  0.00000000E+00  0.00000000E+00
  0.00000000E+00  0.00000000E+00  0.00000000E+00
  0.00000000E+00  0.00000000E+00  0.00000000E+00
  0.00000000E+00  0.00000000E+00  0.00000000E+00
  0.00000000E+00  0.00000000E+00  0.00000000E+00
  0.00000000E+00  0.00000000E+00  0.00000000E+00
  0.00000000E+00  0.00000000E+00  0.00000000E+00
  0.00000000E+00  0.00000000E+00  0.00000000E+00
  0.00000000E+00  0.00000000E+00  0.00000000E+00
  0.00000000E+00  0.00000000E+00  0.00000000E+00
  0.00000000E+00  0.00000000E+00  0.00000000E+00
  0.00000000E+00  0.00000000E+00  0.00000000E+00
  0.00000000E+00  0.00000000E+00  0.00000000E+00
  0.00000000E+00  0.00000000E+00  0.00000000E+00
  0.00000000E+00  0.00000000E+00  0.00000000E+00
  0.00000000E+00  0.00000000E+00  0.00000000E+00
  0.00000000E+00  0.00000000E+00  0.00000000E+00
  0.00000000E+00  0.00000000E+00  0.00000000E+00
  0.00000000E+00  0.00000000E+00  0.00000000E+00
  0.00000000E+00  0.00000000E+00  0.00000000E+00
  0.00000000E+00  0.00000000E+00  0.00000000E+00
  0.00000000E+00  0.00000000E+00  0.00000000E+00
  0.00000000E+00  0.00000000E+00  0.00000000E+00
  0.00000000E+00  0.00000000E+00  0.00000000E+00
  0.00000000E+00  0.00000000E+00  0.00000000E+00
