#generated using str2pos                
    1.000000000000000     
    12.9346618322364826   -0.0156589302177436    0.0025354726990305
    -0.0156631516715190   12.9194867671293991   -0.0013801895339976
     0.0025380946293555   -0.0013762536913570   12.9374929184050718
   Ta   W 
    64    64
Direct
  0.2500984806295246  0.2493887332021192  0.2500771247839721
  0.3778937759934597  0.1252025259816263  0.1248673065751933
  0.6236390733814445  0.1255382090640036  0.1228446941255808
  0.0004775424572061  0.2469329937251284  0.2513433295687791
  0.1243783796118830  0.3784388110333938  0.1287804474591288
  0.6252317191100782  0.3757337108605783  0.1266456835340054
  0.8731779733756331  0.3777125158856789  0.1273304994093961
  0.2542996660722017  0.7510776434390306  0.2496501832779003
  0.1241363930940360  0.6234063307970801  0.1302532916212635
  0.4979919129464910  0.7500124914203573  0.2522712596520881
  0.6267922224225543  0.6253976807974541  0.1239424126788785
  0.4998681744921555 -0.0023963916184423  0.2531477252215025
  0.7514960908088018  0.0004291029413402  0.2512391331929720
  0.6271781956609593  0.8734323814620329  0.1202227013691922
  0.1281001395674142  0.1214406298214708  0.3755281748298071
  0.5010960145221967  0.2478355335312318  0.4986673615110234
  0.0016690598034771  0.2492161607974079  0.4996555555148486
  0.2495172347521832  0.5017127546685390  0.5022656001232305
  0.3765511872797571  0.3756461295713783  0.3751203870129327
  0.7464498197563908  0.5013360368708963  0.4993538532599952
  0.6242441682346033  0.3745061043500427  0.3725453115052744
  0.8731174637138180  0.3770530044824639  0.3741876915070643
  0.2530384778016085  0.7496033761237049  0.5020946720781039
  0.1214254145034649  0.6251372897376835  0.3749574370356882
  0.4987645589304431  0.7513015624536141  0.4985356675769904
  0.7448746202387698  0.7513742567242878  0.4980627343751357
  0.8769431444316822  0.6250591765548533  0.3734061918419878
  0.1242567336031859  0.8755170885289504  0.3750042053514394
  0.5000836458790618 -0.0027416993508129  0.4974486348935206
  0.7467396309607995 -0.0013540627682260  0.4962560414511449
  0.0012027862876462  0.0017990357696925  0.5005604488440089
  0.8785459357600008  0.8715714299137717  0.3728279537953799
  0.2491003093932252  0.2517807008373682  0.7520683360176353
  0.3747687980178391  0.1242768683303231  0.6261988306480681
  0.6248221629905505  0.1259121668148860  0.6279830258649866
  0.0048441941971433  0.2524366524390949  0.7483896743651369
  0.8720310785351543  0.1247622271731665  0.6276113505678647
  0.2490148277561884  0.5011013951643071  0.7509995917151343
  0.3776362444565938  0.3741456151129659  0.6243237550042835
  0.0053045335258327  0.5000898783528948  0.7504946385448378
  0.8719156812630520  0.3756140269931200  0.6242970266191237
  0.6228797813469650  0.6241212856716555  0.6281756634008174
  0.8748474770140391  0.6266511973444645  0.6258908902985491
  0.8760233695129660  0.8741341271392716  0.6273427422057262
  0.2504608444520766  0.2512291189761576 -0.0007061404737097
  0.1235847814683355  0.1201088518979263  0.8744828084371115
  0.7515184698277577  0.2487300838802861  0.0013446182687234
  0.6244551706864381  0.1235236471264884  0.8738839324579425
  0.0011401560738163  0.2489633592655202  0.0018478862855075
  0.8740414864020941  0.1214372305588935  0.8734990827407674
  0.2522128888643304  0.5008267715468048 -0.0017317705865784
  0.4950271386681311  0.4999127636392056 -0.0001977387762178
  0.6247119331666775  0.3748742467423803  0.8735766715790296
  0.0017577387537386  0.5022027484735512 -0.0019571074861573
  0.8704145156037313  0.3764839242669539  0.8738605085539576
  0.2501104811471685  0.7495044842968319  0.0012891643903144
  0.6253475501827561  0.6267162923739078  0.8741585122526150
  0.0010451454190811  0.7501730755268654  0.0016292492456143
  0.8713780514093769  0.6271353649688064  0.8739680033735344
  0.2502433657981703 -0.0004991824580316  0.0021374850856396
  0.1246883431884701  0.8766498381346268  0.8719822939752101
  0.3773039856776594  0.8750173696331521  0.8725386938793248
  0.6245122540305149  0.8752235958231664  0.8753187448423305
  0.8735552888308977  0.8755744719525204  0.8737128009450555
  0.1251504725341976  0.1223339963859067  0.1263843436066123
  0.4989978385736349  0.2487952891912543  0.2506056135289539
  0.7513264939593114  0.2464415781982353  0.2505466491074784
  0.8745560218862923  0.1227211669363845  0.1244901470562343
  0.2521449831130632  0.5004198564652105  0.2515960862994195
  0.4981818187407488  0.5024078378491078  0.2494726400331085
  0.3764181698408358  0.3745657230143483  0.1272005821059129
  0.7488901546109274  0.5022205212046499  0.2505909011929453
 -0.0005235604380483  0.4999353534764879  0.2505480614524457
  0.3764708900572179  0.6243661278198904  0.1256821844404593
  0.7497716484443823  0.7508055273834950  0.2495102531279133
  0.0001187211683271  0.7516163617245448  0.2472105248870858
  0.8729708963445009  0.6259088957157413  0.1265020332425731
  0.2514333473761541 -0.0013228451225626  0.2495739837302443
  0.1233885980361981  0.8756921943374073  0.1269599571099655
  0.3766654882707401  0.8765426278307410  0.1230665121456409
 -0.0005348373952958  0.0007331249108964  0.2475484583746696
  0.8753365608200995  0.8746303683059903  0.1243303512676998
  0.2489661230170978  0.2500534570568346  0.5004056866766471
  0.3733785841298382  0.1255042262943181  0.3753394215371673
  0.7487829102358928  0.2488262268941805  0.4983271405262802
  0.6256600863517152  0.1280157323323853  0.3737945864386095
  0.8751530875132195  0.1254019937041602  0.3745224840894217
  0.1258112289802650  0.3765302679163519  0.3751604478908219
  0.4991316658775842  0.5020986409428899  0.4998037270133785
  0.0026818574404518  0.4982894179195112  0.5018791662717612
  0.3751572789763090  0.6219978836883429  0.3752276323492783
  0.6249568742664415  0.6223821689751762  0.3727094337543016
  0.0023464366897653  0.7503745140006968  0.5019403041750820
  0.2516008664165825 -0.0017260290388892  0.5008329747643537
  0.3725706456898732  0.8761548672626409  0.3757569487406857
  0.6259870837583458  0.8736292698142821  0.3726279452593423
  0.1277216602717480  0.1223373306858587  0.6248019528119571
  0.4979538642335343  0.2510158941607029  0.7506512266273938
  0.7483666257488220  0.2507084478238322  0.7492665707665825
  0.1260130054797859  0.3756066671468294  0.6228071931722641
  0.4966918624899292  0.5004589678956712  0.7508249657961140
  0.7477852652101902  0.4995999514089624  0.7480435311224004
  0.6242391942779596  0.3749640531680231  0.6258767327550402
  0.2505400638861198  0.7486744442808471  0.7486328432192735
  0.1241804946463274  0.6277828261156125  0.6244948843744170
  0.4970396012852281  0.7498721830696312  0.7475355280771453
  0.3767306439843541  0.6252910151047120  0.6271028935663223
  0.7480753600394868  0.7513079720403931  0.7485699124517760
  0.0037382940727075  0.7488037354672263  0.7499096927133829
  0.2507014664930535 -0.0005146510397056  0.7480697842940915
  0.1253620027412682  0.8745941930015806  0.6260448037204467
  0.4984027185137253 -0.0013365827369784  0.7482130531329422
  0.3737274683515299  0.8762130848673110  0.6277902840777327
  0.7479454906459058 -0.0011576327193100  0.7480315045383394
  0.6241141690024451  0.8746579518527359  0.6289577682106210
  0.0021310176793351 -0.0004673535967663  0.7481407120932930
  0.4972081124006991  0.2515935387490740 -0.0012492766970676
  0.3773683450698100  0.1234314270442968  0.8742887372485566
  0.1257281389087752  0.3747824502121045  0.8762363707728480
  0.3782734906494437  0.3746941069464806  0.8738234807474259
  0.7499452896132860  0.5013779421487382  0.0009539349922936
  0.1254054513964433  0.6287559693381199  0.8738170898988460
  0.4970479840595408  0.7484551160229522  0.0003789941706465
  0.3768770533076687  0.6276302049408553  0.8732970437625101
  0.7525644952273893  0.7505667244835776  0.0015004868230764
  0.4979495085439586  0.0001276074048170 -0.0002763319604058
  0.7524412406881686 -0.0001991705307153  0.0021894706323377
  0.0008045020509934 -0.0011095029199422  0.0036200406712950
 
  0.00000000E+00  0.00000000E+00  0.00000000E+00
  0.00000000E+00  0.00000000E+00  0.00000000E+00
  0.00000000E+00  0.00000000E+00  0.00000000E+00
  0.00000000E+00  0.00000000E+00  0.00000000E+00
  0.00000000E+00  0.00000000E+00  0.00000000E+00
  0.00000000E+00  0.00000000E+00  0.00000000E+00
  0.00000000E+00  0.00000000E+00  0.00000000E+00
  0.00000000E+00  0.00000000E+00  0.00000000E+00
  0.00000000E+00  0.00000000E+00  0.00000000E+00
  0.00000000E+00  0.00000000E+00  0.00000000E+00
  0.00000000E+00  0.00000000E+00  0.00000000E+00
  0.00000000E+00  0.00000000E+00  0.00000000E+00
  0.00000000E+00  0.00000000E+00  0.00000000E+00
  0.00000000E+00  0.00000000E+00  0.00000000E+00
  0.00000000E+00  0.00000000E+00  0.00000000E+00
  0.00000000E+00  0.00000000E+00  0.00000000E+00
  0.00000000E+00  0.00000000E+00  0.00000000E+00
  0.00000000E+00  0.00000000E+00  0.00000000E+00
  0.00000000E+00  0.00000000E+00  0.00000000E+00
  0.00000000E+00  0.00000000E+00  0.00000000E+00
  0.00000000E+00  0.00000000E+00  0.00000000E+00
  0.00000000E+00  0.00000000E+00  0.00000000E+00
  0.00000000E+00  0.00000000E+00  0.00000000E+00
  0.00000000E+00  0.00000000E+00  0.00000000E+00
  0.00000000E+00  0.00000000E+00  0.00000000E+00
  0.00000000E+00  0.00000000E+00  0.00000000E+00
  0.00000000E+00  0.00000000E+00  0.00000000E+00
  0.00000000E+00  0.00000000E+00  0.00000000E+00
  0.00000000E+00  0.00000000E+00  0.00000000E+00
  0.00000000E+00  0.00000000E+00  0.00000000E+00
  0.00000000E+00  0.00000000E+00  0.00000000E+00
  0.00000000E+00  0.00000000E+00  0.00000000E+00
  0.00000000E+00  0.00000000E+00  0.00000000E+00
  0.00000000E+00  0.00000000E+00  0.00000000E+00
  0.00000000E+00  0.00000000E+00  0.00000000E+00
  0.00000000E+00  0.00000000E+00  0.00000000E+00
  0.00000000E+00  0.00000000E+00  0.00000000E+00
  0.00000000E+00  0.00000000E+00  0.00000000E+00
  0.00000000E+00  0.00000000E+00  0.00000000E+00
  0.00000000E+00  0.00000000E+00  0.00000000E+00
  0.00000000E+00  0.00000000E+00  0.00000000E+00
  0.00000000E+00  0.00000000E+00  0.00000000E+00
  0.00000000E+00  0.00000000E+00  0.00000000E+00
  0.00000000E+00  0.00000000E+00  0.00000000E+00
  0.00000000E+00  0.00000000E+00  0.00000000E+00
  0.00000000E+00  0.00000000E+00  0.00000000E+00
  0.00000000E+00  0.00000000E+00  0.00000000E+00
  0.00000000E+00  0.00000000E+00  0.00000000E+00
  0.00000000E+00  0.00000000E+00  0.00000000E+00
  0.00000000E+00  0.00000000E+00  0.00000000E+00
  0.00000000E+00  0.00000000E+00  0.00000000E+00
  0.00000000E+00  0.00000000E+00  0.00000000E+00
  0.00000000E+00  0.00000000E+00  0.00000000E+00
  0.00000000E+00  0.00000000E+00  0.00000000E+00
  0.00000000E+00  0.00000000E+00  0.00000000E+00
  0.00000000E+00  0.00000000E+00  0.00000000E+00
  0.00000000E+00  0.00000000E+00  0.00000000E+00
  0.00000000E+00  0.00000000E+00  0.00000000E+00
  0.00000000E+00  0.00000000E+00  0.00000000E+00
  0.00000000E+00  0.00000000E+00  0.00000000E+00
  0.00000000E+00  0.00000000E+00  0.00000000E+00
  0.00000000E+00  0.00000000E+00  0.00000000E+00
  0.00000000E+00  0.00000000E+00  0.00000000E+00
  0.00000000E+00  0.00000000E+00  0.00000000E+00
  0.00000000E+00  0.00000000E+00  0.00000000E+00
  0.00000000E+00  0.00000000E+00  0.00000000E+00
  0.00000000E+00  0.00000000E+00  0.00000000E+00
  0.00000000E+00  0.00000000E+00  0.00000000E+00
  0.00000000E+00  0.00000000E+00  0.00000000E+00
  0.00000000E+00  0.00000000E+00  0.00000000E+00
  0.00000000E+00  0.00000000E+00  0.00000000E+00
  0.00000000E+00  0.00000000E+00  0.00000000E+00
  0.00000000E+00  0.00000000E+00  0.00000000E+00
  0.00000000E+00  0.00000000E+00  0.00000000E+00
  0.00000000E+00  0.00000000E+00  0.00000000E+00
  0.00000000E+00  0.00000000E+00  0.00000000E+00
  0.00000000E+00  0.00000000E+00  0.00000000E+00
  0.00000000E+00  0.00000000E+00  0.00000000E+00
  0.00000000E+00  0.00000000E+00  0.00000000E+00
  0.00000000E+00  0.00000000E+00  0.00000000E+00
  0.00000000E+00  0.00000000E+00  0.00000000E+00
  0.00000000E+00  0.00000000E+00  0.00000000E+00
  0.00000000E+00  0.00000000E+00  0.00000000E+00
  0.00000000E+00  0.00000000E+00  0.00000000E+00
  0.00000000E+00  0.00000000E+00  0.00000000E+00
  0.00000000E+00  0.00000000E+00  0.00000000E+00
  0.00000000E+00  0.00000000E+00  0.00000000E+00
  0.00000000E+00  0.00000000E+00  0.00000000E+00
  0.00000000E+00  0.00000000E+00  0.00000000E+00
  0.00000000E+00  0.00000000E+00  0.00000000E+00
  0.00000000E+00  0.00000000E+00  0.00000000E+00
  0.00000000E+00  0.00000000E+00  0.00000000E+00
  0.00000000E+00  0.00000000E+00  0.00000000E+00
  0.00000000E+00  0.00000000E+00  0.00000000E+00
  0.00000000E+00  0.00000000E+00  0.00000000E+00
  0.00000000E+00  0.00000000E+00  0.00000000E+00
  0.00000000E+00  0.00000000E+00  0.00000000E+00
  0.00000000E+00  0.00000000E+00  0.00000000E+00
  0.00000000E+00  0.00000000E+00  0.00000000E+00
  0.00000000E+00  0.00000000E+00  0.00000000E+00
  0.00000000E+00  0.00000000E+00  0.00000000E+00
  0.00000000E+00  0.00000000E+00  0.00000000E+00
  0.00000000E+00  0.00000000E+00  0.00000000E+00
  0.00000000E+00  0.00000000E+00  0.00000000E+00
  0.00000000E+00  0.00000000E+00  0.00000000E+00
  0.00000000E+00  0.00000000E+00  0.00000000E+00
  0.00000000E+00  0.00000000E+00  0.00000000E+00
  0.00000000E+00  0.00000000E+00  0.00000000E+00
  0.00000000E+00  0.00000000E+00  0.00000000E+00
  0.00000000E+00  0.00000000E+00  0.00000000E+00
  0.00000000E+00  0.00000000E+00  0.00000000E+00
  0.00000000E+00  0.00000000E+00  0.00000000E+00
  0.00000000E+00  0.00000000E+00  0.00000000E+00
  0.00000000E+00  0.00000000E+00  0.00000000E+00
  0.00000000E+00  0.00000000E+00  0.00000000E+00
  0.00000000E+00  0.00000000E+00  0.00000000E+00
  0.00000000E+00  0.00000000E+00  0.00000000E+00
  0.00000000E+00  0.00000000E+00  0.00000000E+00
  0.00000000E+00  0.00000000E+00  0.00000000E+00
  0.00000000E+00  0.00000000E+00  0.00000000E+00
  0.00000000E+00  0.00000000E+00  0.00000000E+00
  0.00000000E+00  0.00000000E+00  0.00000000E+00
  0.00000000E+00  0.00000000E+00  0.00000000E+00
  0.00000000E+00  0.00000000E+00  0.00000000E+00
  0.00000000E+00  0.00000000E+00  0.00000000E+00
  0.00000000E+00  0.00000000E+00  0.00000000E+00
  0.00000000E+00  0.00000000E+00  0.00000000E+00
  0.00000000E+00  0.00000000E+00  0.00000000E+00
