#BCC aalvarado POSCAR generator         
    12.76000000000000     
     1.0084952752187581    0.0001776113511402   -0.0002758003705703
     0.0001776313395580    1.0089589095265401    0.0001184255535483
    -0.0002757515229657    0.0001183407082477    1.0089440088057491
   Ta   W 
    51    77
Direct
  0.4994640618496409  0.5000933065211539  0.5001810033864907
  0.3751781272525546  0.3726755315937423  0.3741743873605017
  0.3741475788933170  0.3735594885141615  0.6252233309476888
  0.7541166893152893  0.7494267168653604  0.7514142239496157
  0.7507392672909851  0.4996771421256529  0.7524295798152021
  0.5008452193328232  0.7474811263058943  0.7502700038507393
  0.7498105165364137  0.4975495245907381  0.2483435405542513
  0.2488434355948704  0.5033332317688339  0.5017637772785092
  0.5012335099489360  0.2513706950729243  0.7513421552368130
  0.2488174597771028  0.7506033063843300  0.2537989313725214
  0.2482892712280430  0.7499740192815278  0.4992418255016061
  0.6248625534335097  0.8745375913712802  0.6229349536147119
  0.6243982637728421  0.8781596079778693  0.8763728920808396
  0.8731699332240884  0.6266205136383871  0.3766495496644598
  0.8743601273814720  0.3737218524740800  0.6258572568236838
  0.3751587780638713  0.6229207890214444  0.8738387954422123
  0.3737776554262424  0.8763448317266581  0.6255975604925555
  0.3739536763396197  0.8771834311596084  0.8738760904007634
  0.8736029273411002  0.8781956760639348  0.1266084203730946
  0.3763941197941145  0.3758332869194095  0.1287483884432708
  0.3777598306924597  0.6226530326621347  0.1273194468485658
  0.3771641750665520  0.8768397653917188  0.1251964622445742
  0.3753288362850680  0.1271250508991565  0.3750066145662457
  0.6259437081163028  0.1272757777953347  0.6235734885375753
  0.1256214602957739  0.3751708486541975  0.1284488840727512
  0.1266927342619515  0.3742759123473711  0.3735514310243172
  0.3741076314939699  0.1221542574753444  0.8738986903498915
  0.1242475283884076  0.1231510623060333  0.8716716045858331
  0.1240694290290188  0.3740765650488796  0.8711403260499458
  0.1227386682344695  0.8783673138110482  0.1238610588902763
  0.1248456580669749  0.8769857145907595  0.8722990277933724
 -0.0022299084636807  0.7471751673002506 -0.0013320681941654
  0.7506280120646227  0.7483813773988843  0.0000465587268377
  0.7543209489914832  0.0011939469434021  0.7500931239242833
  0.7528120344551686  0.0006991839070841  0.4971981217355974
  0.0008877895168759  0.5006708121754558  0.5014452499451302
 -0.0027114578220761  0.5011285585291139 -0.0003922803875640
  0.5040661323609059  0.7484935900165210  0.0016037503226329
  0.5004731726690540  0.0005336450566598  0.4964683887657878
  0.0002227236553024  0.7499851928393365  0.2516979432970239
 -0.0034189871348525  0.2475558747307435  0.2504152868206654
 -0.0007481627997051  0.2472879484826275  0.4994731189335176
 -0.0038632098932070  0.2492965728297641  0.0008050892542111
  0.7495985391108184  0.2502084963856868  0.0008953288756417
  0.5026914009697225  0.2500598923653389  0.0001352382117149
  0.2510148299406082  0.2493437415064090  0.0004352589913377
  0.2486484344504966  0.5002515887870954 -0.0013689171006203
  0.2472983856891416  0.7473224258798663  0.0007237703680974
  0.2489430929567322  0.0007248201599210  0.2518152698477994
  0.6262662726291517  0.6249952113458687  0.6223220316132494
  0.6258651969693062  0.6269655882104390  0.3750910612406569
  0.6246943091223961  0.3733601223460847  0.3746279807649898
  0.6262786789955286  0.3743097843539807  0.6242420324770006
  0.3770941888334690  0.6250791166549515  0.3740468421947037
  0.3745674993756372  0.6250870196243034  0.6266303138228261
  0.7523720598307597  0.7524997607905664  0.4996054055082614
  0.7501196870319579  0.4979084724521918  0.4999615054639776
  0.5013721762238896  0.4980612583330506  0.7504982520368275
  0.4980206773985589  0.7506287710583907  0.4979052619517796
  0.7492766133793141  0.7514644567954889  0.2492253013415887
  0.5030568931820776  0.4995227055321597  0.2507579293708328
  0.5011646868745189  0.7515682328837948  0.2510348664879890
  0.7496958658569505  0.2498021360425008  0.2499972426569543
  0.5036408414502727  0.2487300451971028  0.2491298449251323
  0.7507845016776117  0.2493980725244056  0.4980653073084992
  0.5021722745626849  0.2502950809191893  0.4998756759574210
  0.2492159056967296  0.2467792784117757  0.2497191633793662
  0.2479145817281412  0.2482980916928641  0.5016666729842325
  0.2493157470007888  0.5029183258058926  0.2520846280043257
  0.7503122984770575  0.2504683837416807  0.7515976781510817
  0.2501733160960505  0.2498553551335728  0.7479409634991184
  0.2488182406470048  0.5000820462460969  0.7485080280359763
  0.2474525554442803  0.7484118516524674  0.7472450107655668
  0.8771766221081867  0.8769172506900487  0.8748921033560139
  0.8787908861016561  0.8746121788961571  0.6232674146782459
  0.8766367848369684  0.6255747315086568  0.6242170777631008
  0.8759564883356596  0.6235888242859561  0.8742273643321760
  0.6249365229465711  0.6217720965300200  0.8761631947297137
  0.8745280805877342  0.8753857210360350  0.3751891515507370
  0.6257868146079897  0.8743568038643931  0.3725839834261720
  0.8725920276034470  0.3742355492602883  0.3760029370227738
  0.8745249217072630  0.3742592036856323  0.8731201680123110
  0.6257776007449564  0.3758141195284321  0.8758829737862546
  0.3751436771709758  0.3757014335099704  0.8733876402256314
  0.3765047281459806  0.8762765549625773  0.3754685654501687
  0.8730603859514376  0.6243658909040558  0.1266805849985353
  0.6247073354172475  0.6236255378347140  0.1269310715411238
  0.6257950533249264  0.8770346815461764  0.1268804764158183
  0.8729152306213050  0.3747901839167119  0.1259605469482892
  0.6243705250872027  0.3747473167774392  0.1262718699797390
  0.8728200814332440  0.1227238610318511  0.1257360768249896
  0.6257827351721758  0.1239050719123528  0.1268339443259196
  0.8738974765068446  0.1237067333297372  0.3740488321890091
  0.6255910357832888  0.1265447548576181  0.3726767953767863
  0.3766892845471973  0.1246495222009385  0.1261458774584660
  0.8767166654682519  0.1256860667487206  0.6249861353118648
  0.3733571172729370  0.1252511556520707  0.6242011356691843
  0.1239097447263009  0.1237395527444834  0.1252181790829787
  0.1252679870300390  0.1241824760303827  0.3767249341533093
  0.1254413917017148  0.1235000029833836  0.6247288271564814
  0.1252385041117337  0.3735715739817190  0.6265192056745053
  0.1242742250559730  0.6230780504343545  0.1272076963242682
  0.1229710299354847  0.6247423300910683  0.3761267635681117
  0.1235998580325897  0.6266720110875096  0.6268884166042794
  0.8758495729079488  0.1245285197078146  0.8744071605882313
  0.6258821045276300  0.1244114741174368  0.8754581638984386
  0.1245567590221124  0.6246119443162658  0.8705196681346253
  0.1223560344493626  0.8771877267560688  0.3774771743708949
  0.1243067535995340  0.8760314433156374  0.6252221621448787
 -0.0027902105977942  0.0017621283375029 -0.0008137331901747
 -0.0013289885477545 -0.0004336627714777  0.7469387404211203
 -0.0004058111304670  0.7497764622869507  0.7483573752971399
  0.7499973286054068  0.0023108569043814  0.0004381819671781
  0.0000127509512629 -0.0003026188281053  0.5000719652390666
  0.0008414265278213  0.7517348182202644  0.5013429406661363
 -0.0005910558374201  0.5014086454221338  0.7496821959674755
  0.7501139674719837  0.4989311011949505  0.0005546119295642
  0.5032764976009891  0.4980751766277856 -0.0003126579128369
  0.5008730176744673  0.0027614405827102  0.7489895885774366
  0.5023454465953858  0.0022326242995876  0.0023887732670075
 -0.0012842757026410  0.0017556769673718  0.2522243180669697
  0.7492176770893835  0.0017123402917536  0.2504064651933020
 -0.0025040848282907  0.5004992515317686  0.2499373278411982
  0.5023066596117450  0.0006261813794952  0.2498951384748650
 -0.0008669474011731  0.2486260794702201  0.7482214602231630
  0.2477421775289854 -0.0003902244493313  0.4992676597732230
  0.2478860633768682  0.0009762104008085  0.7457981602392858
  0.2494846434980439  0.0020161886926029  0.0017862810516893
 
  0.00000000E+00  0.00000000E+00  0.00000000E+00
  0.00000000E+00  0.00000000E+00  0.00000000E+00
  0.00000000E+00  0.00000000E+00  0.00000000E+00
  0.00000000E+00  0.00000000E+00  0.00000000E+00
  0.00000000E+00  0.00000000E+00  0.00000000E+00
  0.00000000E+00  0.00000000E+00  0.00000000E+00
  0.00000000E+00  0.00000000E+00  0.00000000E+00
  0.00000000E+00  0.00000000E+00  0.00000000E+00
  0.00000000E+00  0.00000000E+00  0.00000000E+00
  0.00000000E+00  0.00000000E+00  0.00000000E+00
  0.00000000E+00  0.00000000E+00  0.00000000E+00
  0.00000000E+00  0.00000000E+00  0.00000000E+00
  0.00000000E+00  0.00000000E+00  0.00000000E+00
  0.00000000E+00  0.00000000E+00  0.00000000E+00
  0.00000000E+00  0.00000000E+00  0.00000000E+00
  0.00000000E+00  0.00000000E+00  0.00000000E+00
  0.00000000E+00  0.00000000E+00  0.00000000E+00
  0.00000000E+00  0.00000000E+00  0.00000000E+00
  0.00000000E+00  0.00000000E+00  0.00000000E+00
  0.00000000E+00  0.00000000E+00  0.00000000E+00
  0.00000000E+00  0.00000000E+00  0.00000000E+00
  0.00000000E+00  0.00000000E+00  0.00000000E+00
  0.00000000E+00  0.00000000E+00  0.00000000E+00
  0.00000000E+00  0.00000000E+00  0.00000000E+00
  0.00000000E+00  0.00000000E+00  0.00000000E+00
  0.00000000E+00  0.00000000E+00  0.00000000E+00
  0.00000000E+00  0.00000000E+00  0.00000000E+00
  0.00000000E+00  0.00000000E+00  0.00000000E+00
  0.00000000E+00  0.00000000E+00  0.00000000E+00
  0.00000000E+00  0.00000000E+00  0.00000000E+00
  0.00000000E+00  0.00000000E+00  0.00000000E+00
  0.00000000E+00  0.00000000E+00  0.00000000E+00
  0.00000000E+00  0.00000000E+00  0.00000000E+00
  0.00000000E+00  0.00000000E+00  0.00000000E+00
  0.00000000E+00  0.00000000E+00  0.00000000E+00
  0.00000000E+00  0.00000000E+00  0.00000000E+00
  0.00000000E+00  0.00000000E+00  0.00000000E+00
  0.00000000E+00  0.00000000E+00  0.00000000E+00
  0.00000000E+00  0.00000000E+00  0.00000000E+00
  0.00000000E+00  0.00000000E+00  0.00000000E+00
  0.00000000E+00  0.00000000E+00  0.00000000E+00
  0.00000000E+00  0.00000000E+00  0.00000000E+00
  0.00000000E+00  0.00000000E+00  0.00000000E+00
  0.00000000E+00  0.00000000E+00  0.00000000E+00
  0.00000000E+00  0.00000000E+00  0.00000000E+00
  0.00000000E+00  0.00000000E+00  0.00000000E+00
  0.00000000E+00  0.00000000E+00  0.00000000E+00
  0.00000000E+00  0.00000000E+00  0.00000000E+00
  0.00000000E+00  0.00000000E+00  0.00000000E+00
  0.00000000E+00  0.00000000E+00  0.00000000E+00
  0.00000000E+00  0.00000000E+00  0.00000000E+00
  0.00000000E+00  0.00000000E+00  0.00000000E+00
  0.00000000E+00  0.00000000E+00  0.00000000E+00
  0.00000000E+00  0.00000000E+00  0.00000000E+00
  0.00000000E+00  0.00000000E+00  0.00000000E+00
  0.00000000E+00  0.00000000E+00  0.00000000E+00
  0.00000000E+00  0.00000000E+00  0.00000000E+00
  0.00000000E+00  0.00000000E+00  0.00000000E+00
  0.00000000E+00  0.00000000E+00  0.00000000E+00
  0.00000000E+00  0.00000000E+00  0.00000000E+00
  0.00000000E+00  0.00000000E+00  0.00000000E+00
  0.00000000E+00  0.00000000E+00  0.00000000E+00
  0.00000000E+00  0.00000000E+00  0.00000000E+00
  0.00000000E+00  0.00000000E+00  0.00000000E+00
  0.00000000E+00  0.00000000E+00  0.00000000E+00
  0.00000000E+00  0.00000000E+00  0.00000000E+00
  0.00000000E+00  0.00000000E+00  0.00000000E+00
  0.00000000E+00  0.00000000E+00  0.00000000E+00
  0.00000000E+00  0.00000000E+00  0.00000000E+00
  0.00000000E+00  0.00000000E+00  0.00000000E+00
  0.00000000E+00  0.00000000E+00  0.00000000E+00
  0.00000000E+00  0.00000000E+00  0.00000000E+00
  0.00000000E+00  0.00000000E+00  0.00000000E+00
  0.00000000E+00  0.00000000E+00  0.00000000E+00
  0.00000000E+00  0.00000000E+00  0.00000000E+00
  0.00000000E+00  0.00000000E+00  0.00000000E+00
  0.00000000E+00  0.00000000E+00  0.00000000E+00
  0.00000000E+00  0.00000000E+00  0.00000000E+00
  0.00000000E+00  0.00000000E+00  0.00000000E+00
  0.00000000E+00  0.00000000E+00  0.00000000E+00
  0.00000000E+00  0.00000000E+00  0.00000000E+00
  0.00000000E+00  0.00000000E+00  0.00000000E+00
  0.00000000E+00  0.00000000E+00  0.00000000E+00
  0.00000000E+00  0.00000000E+00  0.00000000E+00
  0.00000000E+00  0.00000000E+00  0.00000000E+00
  0.00000000E+00  0.00000000E+00  0.00000000E+00
  0.00000000E+00  0.00000000E+00  0.00000000E+00
  0.00000000E+00  0.00000000E+00  0.00000000E+00
  0.00000000E+00  0.00000000E+00  0.00000000E+00
  0.00000000E+00  0.00000000E+00  0.00000000E+00
  0.00000000E+00  0.00000000E+00  0.00000000E+00
  0.00000000E+00  0.00000000E+00  0.00000000E+00
  0.00000000E+00  0.00000000E+00  0.00000000E+00
  0.00000000E+00  0.00000000E+00  0.00000000E+00
  0.00000000E+00  0.00000000E+00  0.00000000E+00
  0.00000000E+00  0.00000000E+00  0.00000000E+00
  0.00000000E+00  0.00000000E+00  0.00000000E+00
  0.00000000E+00  0.00000000E+00  0.00000000E+00
  0.00000000E+00  0.00000000E+00  0.00000000E+00
  0.00000000E+00  0.00000000E+00  0.00000000E+00
  0.00000000E+00  0.00000000E+00  0.00000000E+00
  0.00000000E+00  0.00000000E+00  0.00000000E+00
  0.00000000E+00  0.00000000E+00  0.00000000E+00
  0.00000000E+00  0.00000000E+00  0.00000000E+00
  0.00000000E+00  0.00000000E+00  0.00000000E+00
  0.00000000E+00  0.00000000E+00  0.00000000E+00
  0.00000000E+00  0.00000000E+00  0.00000000E+00
  0.00000000E+00  0.00000000E+00  0.00000000E+00
  0.00000000E+00  0.00000000E+00  0.00000000E+00
  0.00000000E+00  0.00000000E+00  0.00000000E+00
  0.00000000E+00  0.00000000E+00  0.00000000E+00
  0.00000000E+00  0.00000000E+00  0.00000000E+00
  0.00000000E+00  0.00000000E+00  0.00000000E+00
  0.00000000E+00  0.00000000E+00  0.00000000E+00
  0.00000000E+00  0.00000000E+00  0.00000000E+00
  0.00000000E+00  0.00000000E+00  0.00000000E+00
  0.00000000E+00  0.00000000E+00  0.00000000E+00
  0.00000000E+00  0.00000000E+00  0.00000000E+00
  0.00000000E+00  0.00000000E+00  0.00000000E+00
  0.00000000E+00  0.00000000E+00  0.00000000E+00
  0.00000000E+00  0.00000000E+00  0.00000000E+00
  0.00000000E+00  0.00000000E+00  0.00000000E+00
  0.00000000E+00  0.00000000E+00  0.00000000E+00
  0.00000000E+00  0.00000000E+00  0.00000000E+00
  0.00000000E+00  0.00000000E+00  0.00000000E+00
  0.00000000E+00  0.00000000E+00  0.00000000E+00
  0.00000000E+00  0.00000000E+00  0.00000000E+00
  0.00000000E+00  0.00000000E+00  0.00000000E+00
