#BCC aalvarado POSCAR generator         
    12.76000000000000     
     1.0185855464898157   -0.0002329206286446    0.0003497638182339
    -0.0002334448018369    1.0159446936830405    0.0004521284911429
     0.0003498398348172    0.0004528187470259    1.0177844106989831
   Ta   W 
    76    52
Direct
  0.3722156205938291  0.3732871119524048  0.3772698657531918
  0.6248194139350703  0.3719135901486337  0.6257834386135339
  0.3725627320036261  0.6235591960648073  0.6261804160083401
  0.7502854177246994  0.7485759653308659  0.7460086511756423
  0.7528519951904348  0.5008940107112424  0.7492472431447793
  0.4976720742186223  0.4999768072951731  0.7529078062561086
  0.5009627504627414  0.7522985988352583  0.5011622265148936
  0.7533660162855361  0.4978585693015479  0.2456169158905769
  0.4959626816434280  0.4988248348856166  0.2467478348971041
  0.4961387909009141  0.7466293087559321  0.2475380364838232
  0.7515610829884817  0.2486721950598492  0.2487594146907783
  0.4987872272902680  0.2503413121795952  0.2515195048423516
  0.7521163554580115  0.2475343055685654  0.5005594010639675
  0.2510717576165138  0.2486586969967547  0.4995658053821481
  0.2489350797665166  0.4996890301859620  0.2457353274905072
  0.2463391398679571  0.7478479191883231  0.2482234892530670
  0.2478211976614668  0.7492452923402162  0.4990656883639273
  0.2503320474503500  0.7484633272001705  0.7544360745240759
  0.8765658150264750  0.8739646738003725  0.8742206474965564
  0.8783328365396599  0.8758399073049568  0.6279521243802842
  0.8789896701923305  0.6263174742906126  0.8761504578940068
  0.6249127088092620  0.6257376161994732  0.8765570992420418
  0.6260778342938019  0.8753873388739869  0.8736196167921176
  0.8746954763432954  0.6241061542473689  0.3744783010911988
  0.6251225979588961  0.8740990599901766  0.3708430869625181
  0.8789847505145572  0.3752756997925205  0.3747978894656841
  0.8788374093297326  0.3753624742644923  0.8750007118149571
  0.6234661275644048  0.3720016703810904  0.8748445756844067
  0.3726011955053207  0.8788950374652690  0.3739016439645285
  0.3734700105671276  0.8781583357841497  0.6266153857922010
  0.8747929873742811  0.8727344216076923  0.1240806574559510
  0.6267170093981427  0.6254965005945475  0.1222630252657268
  0.6260372963743902  0.8732536967696336  0.1252549598939575
  0.6223697344434893  0.3745906994635389  0.1213116851939072
  0.3733908971579344  0.8791347722678264  0.1284170061786829
  0.6207623912414527  0.1251674794635896  0.1235211885318036
  0.8807639851640640  0.1274701821959832  0.3744113107464784
  0.3737668234402711  0.1247150193037032  0.1270702371997961
  0.6243040147613738  0.1266434765576399  0.6290034158909373
  0.3752689592422938  0.1248942688770115  0.6279911274174079
  0.1253533024656522  0.1254013068122193  0.3732590703848085
  0.1240605664415691  0.3728396912696229  0.3736047598883078
  0.1271019683574719  0.1242997019568829  0.6255995557289293
  0.1267493357033284  0.3758153471922973  0.6262717944164795
  0.1205245896481289  0.6226039856233894  0.1222288737626400
  0.1242388862740221  0.6234878118117887  0.6274739867696005
  0.8754452451223935  0.1254068662615669  0.8728129420136257
  0.6240007180737184  0.1259131110561965  0.8717814701376285
  0.3756845884732509  0.1272275484052199  0.8723760769787043
  0.1254868718996353  0.8789967641952939  0.3757317949117358
  0.1238018695269984  0.8760810005634104  0.6266975879399992
  0.1218395229163180  0.8749350374815895  0.8728776718559715
  0.0025566947250754  0.0032460735260221  0.0023352659141286
  0.7524111333267929  0.0029560325579057  0.0017634774888411
 -0.0028363247586252  0.0005122064163884  0.5002153407081560
  0.7510015359271788  0.0007874293268330  0.4989916458028331
 -0.0004676350959086  0.5013015399545805  0.5015816185592957
  0.7537565602708132  0.4983025776186281  0.0009584277093295
  0.4942334458928930  0.7493728850797213 -0.0011641734083714
  0.5031990219035968  0.0007045084291194  0.4996495665358878
  0.4972410333507309 -0.0023585629735314 -0.0019257677685459
  0.0007376346105328  0.7500236258336295  0.2497620778606029
  0.7522100737648281  0.0027681625918135  0.2507524870075920
  0.0016257281214870  0.2507813967169981  0.7512454080868958
  0.7539223059944783  0.2501253434940403  0.0024089885199688
  0.2470112728853044  0.2523614939496268 -0.0001267030595322
  0.2494058649585438  0.4980443920353923 -0.0006789077553822
  0.2499914297342490  0.7485181552834749 -0.0011228205481258
  0.2458054075023438  0.0010422057056348 -0.0001090557181697
  0.4997742955425523  0.4998236560040412  0.5009491328969720
  0.6245788609056049  0.6238234874229031  0.6250662094477893
  0.6285172150711364  0.6244955844568405  0.3736040838920177
  0.6263919788450950  0.3756992162014848  0.3779760867791059
  0.3735664431793119  0.3727765433946854  0.6267988882379519
  0.3727912215798345  0.6230614286697759  0.3775873860609628
  0.7516399149944073  0.7524191832606957  0.5022401195348115
  0.7539075098420385  0.4993668163391866  0.5022632814752577
  0.4984768830189347  0.7501257843700699  0.7518211727960334
  0.7535287801375238  0.7497530218746218  0.2501748366390681
  0.5002120579513979  0.2468842673794740  0.4981247806162252
  0.2491160289542662  0.2503896191992440  0.2476843049649592
  0.2472745626164845  0.4997426259377865  0.4990098705797623
  0.7542002234301932  0.2508014783554852  0.7478993537613561
  0.4983448574854099  0.2514417497009113  0.7515099701103380
  0.2480432606682677  0.2513359682368679  0.7539086927572377
  0.2494358668091926  0.4998405628562897  0.7556036631906373
  0.8780970941563296  0.6255738670819925  0.6250553179028535
  0.6247446674634570  0.8771116931638193  0.6276780143380313
  0.8771347943691620  0.8741781103550117  0.3739999097992469
  0.8762632825268878  0.3745657141666113  0.6249912676994585
  0.3746357564946089  0.3736864176892489  0.8744511536157554
  0.3741454200031284  0.6228116871257614  0.8738607353273955
  0.3743178284894191  0.8766111132691882  0.8722746783686328
  0.8764943565944425  0.6258869388140691  0.1231373821491735
  0.8799334541493096  0.3750178149231413  0.1245929946115175
  0.3736353640464545  0.3723053556049662  0.1231726434523726
  0.3737149367452002  0.6234725504051482  0.1229556270000757
  0.8792904334280547  0.1260792680077119  0.1257407488046721
  0.6241054783490216  0.1252498814741328  0.3756520100434753
  0.3728244876840915  0.1245910606022376  0.3750436886967251
  0.8757828370829829  0.1248030798581378  0.6268523190196961
  0.1250211129414605  0.1274926482510613  0.1278232065834511
  0.1223878164518237  0.3740831906348705  0.1247969832071057
  0.1224407312190343  0.6238066882967230  0.3758656129940126
  0.1253703212484793  0.1259446342077598  0.8738555434369608
  0.1249555453847827  0.3762088553329656  0.8748813993924172
  0.1219532287221366  0.6238874402126500  0.8744073260049587
  0.1228259438185695  0.8761653916062266  0.1256864546851289
  0.0005232094352044  0.0034575758561145  0.7506385142861394
  0.0007403621801138  0.7475608781884721  0.7505415685228892
  0.0017561311230147  0.7492340028402462  0.0014807088851464
  0.7508935897736817  0.7489033888370908 -0.0007117806434892
  0.7504071244248673 -0.0005198935317066  0.7479177316111313
 -0.0010377900291955  0.7491400869778064  0.4984531181486510
  0.0007584275822885  0.4988062813297062  0.7502218514949837
  0.0020587840167219  0.4986197619878216  0.0001283447228797
  0.4948923728779326  0.5006294137121395 -0.0009180619471689
  0.4999325709965411 -0.0018679760105845  0.7496303791421624
  0.0000239770574491  0.0005878096834775  0.2481026101121054
  0.0008987415433690  0.4995778178320454  0.2477234149061077
  0.5002132010455430  0.0027645371365708  0.2525120300844889
  0.0010197121180255  0.2503889482570633  0.2455089161572993
 -0.0007292342890148  0.2505031966848708  0.5024554763162907
  0.0028671895782713  0.2505843282779425  0.0012259897240777
  0.4962956507723429  0.2518413504072743  0.0007220668175963
  0.2477887242277895  0.0015269660768125  0.2485577225067005
  0.2508376391329151  0.0020528216797925  0.4994187409810372
  0.2498602037138264 -0.0001193606390608  0.7535080518695686
 
  0.00000000E+00  0.00000000E+00  0.00000000E+00
  0.00000000E+00  0.00000000E+00  0.00000000E+00
  0.00000000E+00  0.00000000E+00  0.00000000E+00
  0.00000000E+00  0.00000000E+00  0.00000000E+00
  0.00000000E+00  0.00000000E+00  0.00000000E+00
  0.00000000E+00  0.00000000E+00  0.00000000E+00
  0.00000000E+00  0.00000000E+00  0.00000000E+00
  0.00000000E+00  0.00000000E+00  0.00000000E+00
  0.00000000E+00  0.00000000E+00  0.00000000E+00
  0.00000000E+00  0.00000000E+00  0.00000000E+00
  0.00000000E+00  0.00000000E+00  0.00000000E+00
  0.00000000E+00  0.00000000E+00  0.00000000E+00
  0.00000000E+00  0.00000000E+00  0.00000000E+00
  0.00000000E+00  0.00000000E+00  0.00000000E+00
  0.00000000E+00  0.00000000E+00  0.00000000E+00
  0.00000000E+00  0.00000000E+00  0.00000000E+00
  0.00000000E+00  0.00000000E+00  0.00000000E+00
  0.00000000E+00  0.00000000E+00  0.00000000E+00
  0.00000000E+00  0.00000000E+00  0.00000000E+00
  0.00000000E+00  0.00000000E+00  0.00000000E+00
  0.00000000E+00  0.00000000E+00  0.00000000E+00
  0.00000000E+00  0.00000000E+00  0.00000000E+00
  0.00000000E+00  0.00000000E+00  0.00000000E+00
  0.00000000E+00  0.00000000E+00  0.00000000E+00
  0.00000000E+00  0.00000000E+00  0.00000000E+00
  0.00000000E+00  0.00000000E+00  0.00000000E+00
  0.00000000E+00  0.00000000E+00  0.00000000E+00
  0.00000000E+00  0.00000000E+00  0.00000000E+00
  0.00000000E+00  0.00000000E+00  0.00000000E+00
  0.00000000E+00  0.00000000E+00  0.00000000E+00
  0.00000000E+00  0.00000000E+00  0.00000000E+00
  0.00000000E+00  0.00000000E+00  0.00000000E+00
  0.00000000E+00  0.00000000E+00  0.00000000E+00
  0.00000000E+00  0.00000000E+00  0.00000000E+00
  0.00000000E+00  0.00000000E+00  0.00000000E+00
  0.00000000E+00  0.00000000E+00  0.00000000E+00
  0.00000000E+00  0.00000000E+00  0.00000000E+00
  0.00000000E+00  0.00000000E+00  0.00000000E+00
  0.00000000E+00  0.00000000E+00  0.00000000E+00
  0.00000000E+00  0.00000000E+00  0.00000000E+00
  0.00000000E+00  0.00000000E+00  0.00000000E+00
  0.00000000E+00  0.00000000E+00  0.00000000E+00
  0.00000000E+00  0.00000000E+00  0.00000000E+00
  0.00000000E+00  0.00000000E+00  0.00000000E+00
  0.00000000E+00  0.00000000E+00  0.00000000E+00
  0.00000000E+00  0.00000000E+00  0.00000000E+00
  0.00000000E+00  0.00000000E+00  0.00000000E+00
  0.00000000E+00  0.00000000E+00  0.00000000E+00
  0.00000000E+00  0.00000000E+00  0.00000000E+00
  0.00000000E+00  0.00000000E+00  0.00000000E+00
  0.00000000E+00  0.00000000E+00  0.00000000E+00
  0.00000000E+00  0.00000000E+00  0.00000000E+00
  0.00000000E+00  0.00000000E+00  0.00000000E+00
  0.00000000E+00  0.00000000E+00  0.00000000E+00
  0.00000000E+00  0.00000000E+00  0.00000000E+00
  0.00000000E+00  0.00000000E+00  0.00000000E+00
  0.00000000E+00  0.00000000E+00  0.00000000E+00
  0.00000000E+00  0.00000000E+00  0.00000000E+00
  0.00000000E+00  0.00000000E+00  0.00000000E+00
  0.00000000E+00  0.00000000E+00  0.00000000E+00
  0.00000000E+00  0.00000000E+00  0.00000000E+00
  0.00000000E+00  0.00000000E+00  0.00000000E+00
  0.00000000E+00  0.00000000E+00  0.00000000E+00
  0.00000000E+00  0.00000000E+00  0.00000000E+00
  0.00000000E+00  0.00000000E+00  0.00000000E+00
  0.00000000E+00  0.00000000E+00  0.00000000E+00
  0.00000000E+00  0.00000000E+00  0.00000000E+00
  0.00000000E+00  0.00000000E+00  0.00000000E+00
  0.00000000E+00  0.00000000E+00  0.00000000E+00
  0.00000000E+00  0.00000000E+00  0.00000000E+00
  0.00000000E+00  0.00000000E+00  0.00000000E+00
  0.00000000E+00  0.00000000E+00  0.00000000E+00
  0.00000000E+00  0.00000000E+00  0.00000000E+00
  0.00000000E+00  0.00000000E+00  0.00000000E+00
  0.00000000E+00  0.00000000E+00  0.00000000E+00
  0.00000000E+00  0.00000000E+00  0.00000000E+00
  0.00000000E+00  0.00000000E+00  0.00000000E+00
  0.00000000E+00  0.00000000E+00  0.00000000E+00
  0.00000000E+00  0.00000000E+00  0.00000000E+00
  0.00000000E+00  0.00000000E+00  0.00000000E+00
  0.00000000E+00  0.00000000E+00  0.00000000E+00
  0.00000000E+00  0.00000000E+00  0.00000000E+00
  0.00000000E+00  0.00000000E+00  0.00000000E+00
  0.00000000E+00  0.00000000E+00  0.00000000E+00
  0.00000000E+00  0.00000000E+00  0.00000000E+00
  0.00000000E+00  0.00000000E+00  0.00000000E+00
  0.00000000E+00  0.00000000E+00  0.00000000E+00
  0.00000000E+00  0.00000000E+00  0.00000000E+00
  0.00000000E+00  0.00000000E+00  0.00000000E+00
  0.00000000E+00  0.00000000E+00  0.00000000E+00
  0.00000000E+00  0.00000000E+00  0.00000000E+00
  0.00000000E+00  0.00000000E+00  0.00000000E+00
  0.00000000E+00  0.00000000E+00  0.00000000E+00
  0.00000000E+00  0.00000000E+00  0.00000000E+00
  0.00000000E+00  0.00000000E+00  0.00000000E+00
  0.00000000E+00  0.00000000E+00  0.00000000E+00
  0.00000000E+00  0.00000000E+00  0.00000000E+00
  0.00000000E+00  0.00000000E+00  0.00000000E+00
  0.00000000E+00  0.00000000E+00  0.00000000E+00
  0.00000000E+00  0.00000000E+00  0.00000000E+00
  0.00000000E+00  0.00000000E+00  0.00000000E+00
  0.00000000E+00  0.00000000E+00  0.00000000E+00
  0.00000000E+00  0.00000000E+00  0.00000000E+00
  0.00000000E+00  0.00000000E+00  0.00000000E+00
  0.00000000E+00  0.00000000E+00  0.00000000E+00
  0.00000000E+00  0.00000000E+00  0.00000000E+00
  0.00000000E+00  0.00000000E+00  0.00000000E+00
  0.00000000E+00  0.00000000E+00  0.00000000E+00
  0.00000000E+00  0.00000000E+00  0.00000000E+00
  0.00000000E+00  0.00000000E+00  0.00000000E+00
  0.00000000E+00  0.00000000E+00  0.00000000E+00
  0.00000000E+00  0.00000000E+00  0.00000000E+00
  0.00000000E+00  0.00000000E+00  0.00000000E+00
  0.00000000E+00  0.00000000E+00  0.00000000E+00
  0.00000000E+00  0.00000000E+00  0.00000000E+00
  0.00000000E+00  0.00000000E+00  0.00000000E+00
  0.00000000E+00  0.00000000E+00  0.00000000E+00
  0.00000000E+00  0.00000000E+00  0.00000000E+00
  0.00000000E+00  0.00000000E+00  0.00000000E+00
  0.00000000E+00  0.00000000E+00  0.00000000E+00
  0.00000000E+00  0.00000000E+00  0.00000000E+00
  0.00000000E+00  0.00000000E+00  0.00000000E+00
  0.00000000E+00  0.00000000E+00  0.00000000E+00
  0.00000000E+00  0.00000000E+00  0.00000000E+00
  0.00000000E+00  0.00000000E+00  0.00000000E+00
  0.00000000E+00  0.00000000E+00  0.00000000E+00
  0.00000000E+00  0.00000000E+00  0.00000000E+00
  0.00000000E+00  0.00000000E+00  0.00000000E+00
