#BCC aalvarado POSCAR generator         
    12.76000000000000     
     1.0172428333326584   -0.0017729011266995   -0.0004571188500751
    -0.0017725508297016    1.0176867856676641    0.0001226060786856
    -0.0004569483982625    0.0001229552324313    1.0177559235575799
   Ta   W 
    76    52
Direct
  0.6259458319945806  0.6228543124565743  0.3709930259423362
  0.3781939071327106  0.3776543738705666  0.3735925759320219
  0.3740130279066317  0.6281488380434642  0.6258161204008950
  0.7531370334411995  0.7493062992597441  0.7488822698188659
  0.7500662979735284  0.7493330244669240  0.5013532123009313
  0.7497338969638072  0.4987610261512418  0.4994510211073482
  0.7485259110084281  0.5007788897894160  0.7483504757861408
  0.5022652241835750  0.4961056132179731  0.7478465440802258
  0.5025377312188785  0.7498510242302177  0.4973308789058753
  0.4976592845417970  0.7488955219350634  0.2513129921990454
  0.7498635195646325  0.2496453261474220  0.2560259653022479
  0.5024503920955408  0.2489254946245319  0.2522872396686208
  0.7483440859708556  0.2503320165210483  0.4988192135204670
  0.5048957077093218  0.2505021756892500  0.5026076820934107
  0.2495571338373145  0.2476284242938593  0.2502286565833860
  0.2525513933421017  0.2510250179693613  0.5012256361343599
  0.2494456321193522  0.5050139715448506  0.2479007623499055
  0.2535484246006638  0.5011175157392966  0.4990669972483014
  0.5008815289533939  0.2514576704531833  0.7500453529952186
  0.2542197831107185  0.2521834546443621  0.7517572396960622
  0.8791939041866750  0.6273463234857666  0.6249355816700055
  0.6255064923015826  0.6270527593634309  0.8768385373412503
  0.6250834037480125  0.8770633904565520  0.6279494713015714
  0.6233154267380497  0.8736228234877376  0.8722186128850886
  0.8764425698846916  0.8734160085777410  0.3766950702135913
  0.8766170454808714  0.3719283227298293  0.6260023161219724
  0.8735660705218746  0.3761254213770069  0.8764005204558879
  0.3743870295845820  0.6271556370270198  0.8691584530870152
  0.3721196587389120  0.8757834837029114  0.3759027044085229
  0.3733977311281969  0.8745783266494032  0.6263771867503993
  0.8727148638069063  0.8700559589550062  0.1282098182268225
  0.6281961921118062  0.6236719682207805  0.1257271554846229
  0.6250276825431370  0.8726961359041233  0.1260192204372096
  0.8722892684674927  0.3792331822637310  0.1228088723064504
  0.6258358966899662  0.3790423035990591  0.1260684671469228
  0.3774622856654276  0.3766798620189862  0.1278496678469465
  0.3723016588503714  0.8759225267233217  0.1270650122301991
  0.8732865492939337  0.1243419003550265  0.1245164114495541
  0.6233391903653083  0.1233013864429508  0.1263798266367248
  0.3754532787669301  0.1221551850376464  0.3771040641381552
  0.8747056670642930  0.1238660854262818  0.6251160230920286
  0.3749479145319665  0.1201691006561044  0.6257779445123481
  0.1245506981782593  0.1232738828335369  0.1224799584508302
  0.1229736668444388  0.3761181617600151  0.1243290815084458
  0.1249445621565567  0.3754414751649592  0.3764742612372725
  0.1254012121467820  0.1214772569273336  0.6237974156464704
  0.1254920016968026  0.3760066118447022  0.6242140295711502
  0.1249935995730593  0.6308766193802631  0.3754045537309764
  0.1271402547349696  0.6297778592657278  0.6245380705066795
  0.8717873840077703  0.1251845097203776  0.8711925684425067
  0.1276198796327163  0.1205048116079169  0.8742302533461889
  0.1245765912292391  0.8739600373079671  0.1265208477102512
  0.1268084053708028  0.8737471369906008  0.6243564848806039
  0.1273091495934302  0.8739450990716493  0.8721784625135393
 -0.0038759455549954 -0.0043807930350101 -0.0023303728612714
 -0.0025576038075041 -0.0037155687375349  0.7496800426246304
 -0.0009481694297035  0.7466245885050264 -0.0008539067174616
  0.7479758944579314 -0.0004716007635984 -0.0022984765329978
 -0.0024826573883489  0.5010657626931762  0.4974566957774228
  0.0020325908651489  0.5018364301411408  0.7529756996284013
  0.4973198774727717  0.4989962742166313 -0.0030564484228202
  0.4955873508034382  0.7498770406424268  0.0012577373336903
  0.5043208960719561  0.0001350540791181  0.4999257349848401
  0.4975203872813446  0.0014732998311966 -0.0021850721250833
 -0.0000641172236932  0.0009586470617172  0.2541178571375777
  0.7489426674742730  0.0007434204754754  0.2548662550025510
 -0.0021684773626556  0.5026067350384892  0.2501137937921212
 -0.0024827301279186  0.2494904987229025  0.2530089087541768
  0.0035373457530311  0.2512220096035897  0.7518730508501760
  0.0008639039508249  0.2508949634269070 -0.0018390842081517
  0.7454210528521589  0.2493450526255878 -0.0023094908590517
  0.4986524772535451  0.2489389270940664 -0.0040517962167159
  0.2530361560080880  0.2515806506229600 -0.0031900809675954
  0.2491388256559628  0.5020963648951828 -0.0009166393212621
  0.2483458489709027  0.7469117645505161  0.0005623040766128
  0.2470344518751284  0.0011795171847865  0.2516006346117360
  0.2519733448981043 -0.0005001283469850  0.7511923784966538
  0.2526358146991260 -0.0001121417396393 -0.0004045813816988
  0.5026522098600461  0.4998274297867715  0.5012918163877312
  0.6235830238896128  0.6254218888816726  0.6238245175338434
  0.6241870130339863  0.3786320728031936  0.3744814270001281
  0.6263409207854955  0.3742191788856117  0.6246670330540586
  0.3767587072678127  0.3779175474033096  0.6232683893113604
  0.3756139865005409  0.6262623119304005  0.3756659398733864
  0.5007940649622032  0.7497854290260195  0.7487238202432800
  0.7505304618896055  0.7487334964610746  0.2518549219608222
  0.7524876681743412  0.5000881795710598  0.2521872659463081
  0.4996149388976754  0.5016542243225628  0.2504600601537488
  0.7454317421108765  0.2500077652642759  0.7484314364443292
  0.2510439958905596  0.4987405161282883  0.7514428216164337
  0.2492428632269609  0.7495299344957348  0.2495932489855796
  0.2504484730089226  0.7509303908856354  0.4980070322012208
  0.2499341442942939  0.7504746955372582  0.7515411839741006
  0.8732109912219079  0.8722971355278063  0.8741093303113060
  0.8766448973830738  0.8760722866665170  0.6232923077371941
  0.8750016478461987  0.6243109964157861  0.8771279794287267
  0.8751169706229176  0.6281624155358105  0.3728739246541862
  0.6267007324677887  0.8745938949838629  0.3754688027251406
  0.8747085867462143  0.3754579486678125  0.3755007857900923
  0.6275167583949907  0.3756501767908282  0.8748959606269184
  0.3749330011881994  0.3769653828550970  0.8736811280040722
  0.3733423913799168  0.8751906663621810  0.8718835027933753
  0.8724103384486885  0.6251046956213824  0.1249044268150149
  0.3745324193937749  0.6256993981721076  0.1257262227988677
  0.8757249822060442  0.1226666544590615  0.3805620350226569
  0.6251411931253618  0.1230148485959531  0.3764580855706982
  0.3745560417058924  0.1229485149729950  0.1250679824709299
  0.6277540450602308  0.1225958078250487  0.6267528447624181
  0.1243526726587506  0.1234268687357343  0.3788713062464201
  0.1219187280640042  0.6267443961681790  0.1259326449830074
  0.6245667334933850  0.1230819596605225  0.8713664500090877
  0.3744465607100431  0.1214114019177092  0.8727384135388780
  0.1249815293096522  0.3779239443067388  0.8747587425863831
  0.1251431100967071  0.6262227084694780  0.8726146484747689
  0.1238739640184208  0.8736352650080434  0.3782707273854397
 -0.0014521827020426  0.7496681928010916  0.7523023678888152
  0.7527255964632267  0.7484758472737256 -0.0013102288272444
  0.7497829429504805 -0.0011587532091503  0.7492184890105617
 -0.0004580335645241 -0.0009976255001870  0.4996457624453011
 -0.0008742828656352  0.7521487076795089  0.4995629860558162
  0.7496759047927007  0.0006756224270256  0.5002604969394754
  0.0009560484650514  0.5039336084470886 -0.0005895210933296
  0.7501915905108029  0.5009369266067757 -0.0013959211785127
  0.5005217419909489  0.0023798491824054  0.7513068159332958
 -0.0003942387775685  0.7481019265701798  0.2496867056139025
  0.5004747622814297  0.0002957627510314  0.2514540401699092
 -0.0010104692762240  0.2483410877094459  0.4982173919590271
  0.2482359916424894 -0.0000418960124068  0.4984155168507266
 
  0.00000000E+00  0.00000000E+00  0.00000000E+00
  0.00000000E+00  0.00000000E+00  0.00000000E+00
  0.00000000E+00  0.00000000E+00  0.00000000E+00
  0.00000000E+00  0.00000000E+00  0.00000000E+00
  0.00000000E+00  0.00000000E+00  0.00000000E+00
  0.00000000E+00  0.00000000E+00  0.00000000E+00
  0.00000000E+00  0.00000000E+00  0.00000000E+00
  0.00000000E+00  0.00000000E+00  0.00000000E+00
  0.00000000E+00  0.00000000E+00  0.00000000E+00
  0.00000000E+00  0.00000000E+00  0.00000000E+00
  0.00000000E+00  0.00000000E+00  0.00000000E+00
  0.00000000E+00  0.00000000E+00  0.00000000E+00
  0.00000000E+00  0.00000000E+00  0.00000000E+00
  0.00000000E+00  0.00000000E+00  0.00000000E+00
  0.00000000E+00  0.00000000E+00  0.00000000E+00
  0.00000000E+00  0.00000000E+00  0.00000000E+00
  0.00000000E+00  0.00000000E+00  0.00000000E+00
  0.00000000E+00  0.00000000E+00  0.00000000E+00
  0.00000000E+00  0.00000000E+00  0.00000000E+00
  0.00000000E+00  0.00000000E+00  0.00000000E+00
  0.00000000E+00  0.00000000E+00  0.00000000E+00
  0.00000000E+00  0.00000000E+00  0.00000000E+00
  0.00000000E+00  0.00000000E+00  0.00000000E+00
  0.00000000E+00  0.00000000E+00  0.00000000E+00
  0.00000000E+00  0.00000000E+00  0.00000000E+00
  0.00000000E+00  0.00000000E+00  0.00000000E+00
  0.00000000E+00  0.00000000E+00  0.00000000E+00
  0.00000000E+00  0.00000000E+00  0.00000000E+00
  0.00000000E+00  0.00000000E+00  0.00000000E+00
  0.00000000E+00  0.00000000E+00  0.00000000E+00
  0.00000000E+00  0.00000000E+00  0.00000000E+00
  0.00000000E+00  0.00000000E+00  0.00000000E+00
  0.00000000E+00  0.00000000E+00  0.00000000E+00
  0.00000000E+00  0.00000000E+00  0.00000000E+00
  0.00000000E+00  0.00000000E+00  0.00000000E+00
  0.00000000E+00  0.00000000E+00  0.00000000E+00
  0.00000000E+00  0.00000000E+00  0.00000000E+00
  0.00000000E+00  0.00000000E+00  0.00000000E+00
  0.00000000E+00  0.00000000E+00  0.00000000E+00
  0.00000000E+00  0.00000000E+00  0.00000000E+00
  0.00000000E+00  0.00000000E+00  0.00000000E+00
  0.00000000E+00  0.00000000E+00  0.00000000E+00
  0.00000000E+00  0.00000000E+00  0.00000000E+00
  0.00000000E+00  0.00000000E+00  0.00000000E+00
  0.00000000E+00  0.00000000E+00  0.00000000E+00
  0.00000000E+00  0.00000000E+00  0.00000000E+00
  0.00000000E+00  0.00000000E+00  0.00000000E+00
  0.00000000E+00  0.00000000E+00  0.00000000E+00
  0.00000000E+00  0.00000000E+00  0.00000000E+00
  0.00000000E+00  0.00000000E+00  0.00000000E+00
  0.00000000E+00  0.00000000E+00  0.00000000E+00
  0.00000000E+00  0.00000000E+00  0.00000000E+00
  0.00000000E+00  0.00000000E+00  0.00000000E+00
  0.00000000E+00  0.00000000E+00  0.00000000E+00
  0.00000000E+00  0.00000000E+00  0.00000000E+00
  0.00000000E+00  0.00000000E+00  0.00000000E+00
  0.00000000E+00  0.00000000E+00  0.00000000E+00
  0.00000000E+00  0.00000000E+00  0.00000000E+00
  0.00000000E+00  0.00000000E+00  0.00000000E+00
  0.00000000E+00  0.00000000E+00  0.00000000E+00
  0.00000000E+00  0.00000000E+00  0.00000000E+00
  0.00000000E+00  0.00000000E+00  0.00000000E+00
  0.00000000E+00  0.00000000E+00  0.00000000E+00
  0.00000000E+00  0.00000000E+00  0.00000000E+00
  0.00000000E+00  0.00000000E+00  0.00000000E+00
  0.00000000E+00  0.00000000E+00  0.00000000E+00
  0.00000000E+00  0.00000000E+00  0.00000000E+00
  0.00000000E+00  0.00000000E+00  0.00000000E+00
  0.00000000E+00  0.00000000E+00  0.00000000E+00
  0.00000000E+00  0.00000000E+00  0.00000000E+00
  0.00000000E+00  0.00000000E+00  0.00000000E+00
  0.00000000E+00  0.00000000E+00  0.00000000E+00
  0.00000000E+00  0.00000000E+00  0.00000000E+00
  0.00000000E+00  0.00000000E+00  0.00000000E+00
  0.00000000E+00  0.00000000E+00  0.00000000E+00
  0.00000000E+00  0.00000000E+00  0.00000000E+00
  0.00000000E+00  0.00000000E+00  0.00000000E+00
  0.00000000E+00  0.00000000E+00  0.00000000E+00
  0.00000000E+00  0.00000000E+00  0.00000000E+00
  0.00000000E+00  0.00000000E+00  0.00000000E+00
  0.00000000E+00  0.00000000E+00  0.00000000E+00
  0.00000000E+00  0.00000000E+00  0.00000000E+00
  0.00000000E+00  0.00000000E+00  0.00000000E+00
  0.00000000E+00  0.00000000E+00  0.00000000E+00
  0.00000000E+00  0.00000000E+00  0.00000000E+00
  0.00000000E+00  0.00000000E+00  0.00000000E+00
  0.00000000E+00  0.00000000E+00  0.00000000E+00
  0.00000000E+00  0.00000000E+00  0.00000000E+00
  0.00000000E+00  0.00000000E+00  0.00000000E+00
  0.00000000E+00  0.00000000E+00  0.00000000E+00
  0.00000000E+00  0.00000000E+00  0.00000000E+00
  0.00000000E+00  0.00000000E+00  0.00000000E+00
  0.00000000E+00  0.00000000E+00  0.00000000E+00
  0.00000000E+00  0.00000000E+00  0.00000000E+00
  0.00000000E+00  0.00000000E+00  0.00000000E+00
  0.00000000E+00  0.00000000E+00  0.00000000E+00
  0.00000000E+00  0.00000000E+00  0.00000000E+00
  0.00000000E+00  0.00000000E+00  0.00000000E+00
  0.00000000E+00  0.00000000E+00  0.00000000E+00
  0.00000000E+00  0.00000000E+00  0.00000000E+00
  0.00000000E+00  0.00000000E+00  0.00000000E+00
  0.00000000E+00  0.00000000E+00  0.00000000E+00
  0.00000000E+00  0.00000000E+00  0.00000000E+00
  0.00000000E+00  0.00000000E+00  0.00000000E+00
  0.00000000E+00  0.00000000E+00  0.00000000E+00
  0.00000000E+00  0.00000000E+00  0.00000000E+00
  0.00000000E+00  0.00000000E+00  0.00000000E+00
  0.00000000E+00  0.00000000E+00  0.00000000E+00
  0.00000000E+00  0.00000000E+00  0.00000000E+00
  0.00000000E+00  0.00000000E+00  0.00000000E+00
  0.00000000E+00  0.00000000E+00  0.00000000E+00
  0.00000000E+00  0.00000000E+00  0.00000000E+00
  0.00000000E+00  0.00000000E+00  0.00000000E+00
  0.00000000E+00  0.00000000E+00  0.00000000E+00
  0.00000000E+00  0.00000000E+00  0.00000000E+00
  0.00000000E+00  0.00000000E+00  0.00000000E+00
  0.00000000E+00  0.00000000E+00  0.00000000E+00
  0.00000000E+00  0.00000000E+00  0.00000000E+00
  0.00000000E+00  0.00000000E+00  0.00000000E+00
  0.00000000E+00  0.00000000E+00  0.00000000E+00
  0.00000000E+00  0.00000000E+00  0.00000000E+00
  0.00000000E+00  0.00000000E+00  0.00000000E+00
  0.00000000E+00  0.00000000E+00  0.00000000E+00
  0.00000000E+00  0.00000000E+00  0.00000000E+00
  0.00000000E+00  0.00000000E+00  0.00000000E+00
  0.00000000E+00  0.00000000E+00  0.00000000E+00
  0.00000000E+00  0.00000000E+00  0.00000000E+00
  0.00000000E+00  0.00000000E+00  0.00000000E+00
