#BCC aalvarado POSCAR generator         
    12.76000000000000     
     1.0279652184294046    0.0000563138308054    0.0006997334325218
     0.0000565571796960    1.0273737920917165   -0.0000719388434092
     0.0007003335695204   -0.0000721914482748    1.0268004457639244
   Ta   W 
   102    26
Direct
  0.4984393936302528  0.5020302003681584  0.4984164168738916
  0.6261704823793985  0.6263090102375055  0.6272495473780690
  0.6249860428105778  0.6248109719264523  0.3738161660292617
  0.6275729534607621  0.3739499690064071  0.3755820947334304
  0.3749109323123837  0.3734758385676035  0.3763711527332088
  0.6267983257937135  0.3755941223385321  0.6233636497281226
  0.3742704106365868  0.3752874595208088  0.6245275785635542
  0.3720952351371879  0.6260164683694612  0.6257836397959160
  0.7525604484428861  0.7477617988150291  0.4966164457114674
  0.7512288435000674  0.5028206053566220  0.4977196393193883
  0.7491721557934514  0.4984633777581572  0.7478528590997475
  0.4975291085420222  0.4985684987011353  0.7516860830495889
  0.4973342580039264  0.7504395479991912  0.5004122033995256
  0.4956828466655023  0.7523501765740548  0.7469858531835761
  0.7530427943969487  0.7500169589797201  0.2504197142652665
  0.7536621588165955  0.5008968157154469  0.2501309406721599
  0.4978350116685863  0.5000680995556644  0.2491548554103923
  0.4979624836614556  0.7484234168231434  0.2529341557414995
  0.7518120181570274  0.2528390017995228  0.2464672297676119
  0.4981687678287412  0.2517921195374077  0.2475536927551327
  0.4998803037685847  0.2473320914262881  0.5024455063243527
  0.2523654254446148  0.2531078326833907  0.2491482406472301
  0.2493960907287040  0.2511951299711346  0.5011396429847996
  0.2523630482580108  0.4999809777177701  0.2488757388729973
  0.2515153795662524  0.5000944514808070  0.4986973740561393
  0.7476361963143314  0.2485303595219590  0.7494436534534415
  0.4985669631824304  0.2493463684144554  0.7512440954321568
  0.2504985354015934  0.2537695537164872  0.7531512569046889
  0.2486927387811208  0.4988878227480743  0.7551224341402814
  0.2508350848428623  0.7463521083427629  0.2507715537284664
  0.2473769769187414  0.7499603602011899  0.7523903376247513
  0.8707885278606293  0.8706856019157641  0.8735813233216931
  0.8738833035798030  0.8724498422799393  0.6279373772743454
  0.8772627228473846  0.6228385050997638  0.6282890420932871
  0.8712874622420397  0.6240090854005267  0.8743091246285570
  0.6262486160466980  0.6271315062027367  0.8763348780571588
  0.6271533429740123  0.8711748421501860  0.6276993421391663
  0.6254440864347562  0.8705268553785501  0.8761994238351973
  0.8756825059928863  0.8763040166217274  0.3761527560411242
  0.6241810320379817  0.8748879743635360  0.3747188266792816
  0.8777240855683092  0.3728647501183756  0.3768484932729924
  0.8780098664888962  0.3752105424421259  0.6243797800040016
  0.8759970652665153  0.3777463695019119  0.8715680851120896
  0.6279206352929241  0.3777610188067767  0.8764517930089397
  0.3772594947231768  0.6284469560224908  0.8763956823065292
  0.3709475604972166  0.8777413385743282  0.3761905286951724
  0.3747932008175539  0.8766626078343811  0.8774743695310396
  0.8719342673710694  0.6249649223121156  0.1188545198933786
  0.6260946220389970  0.6261085038455320  0.1196865827891763
  0.6230200587860052  0.8710633246212219  0.1217095750652637
  0.6270444196497548  0.3786786938983425  0.1227329704766552
  0.3765989853827151  0.6281597588789131  0.1214479757897459
  0.3737871683182524  0.8763365350783739  0.1235347368659779
  0.8790080107026880  0.1271630831968940  0.1262452686584096
  0.6250062633374525  0.1257487905282978  0.1246049570889456
  0.8766436295142475  0.1288136699941086  0.3749652969012042
  0.6268158201636473  0.1270086891872507  0.3746332564992502
  0.3703267032799664  0.1221422626560420  0.1243555278170045
  0.3715788932504698  0.1213918180578552  0.3753195647867847
  0.8774062338324740  0.1286845389118017  0.6254109193236377
  0.3701731559691354  0.1222220044596280  0.6261266121810516
  0.1276449397851531  0.1249191385368368  0.1252239906474382
  0.1266757296834061  0.1234216398199350  0.3731649769039198
  0.1248674204669007  0.3714997771477719  0.1258316377772752
  0.1217086915553079  0.3747908828792234  0.3750750536193930
  0.1266900885445862  0.1234932785311323  0.6278284275470355
  0.1203970392669160  0.3765419135274969  0.6261630976962447
  0.1247585972648973  0.6246419479833307  0.1259164434403165
  0.1242569392631451  0.6244590468184086  0.3777361367593128
  0.1231241621727811  0.6231403763100737  0.6226295198834277
  0.8786223335444160  0.1276180233548684  0.8734722686412122
  0.6244690545885101  0.1253108035828351  0.8771135907354940
  0.3695532003522927  0.1218449096658671  0.8770649958117326
  0.1271878284181531  0.1251140790447379  0.8759974814143133
  0.1293524559268195  0.8780590533217756  0.1265009253660192
  0.1295989511261312  0.8764317126665943  0.3765269762169871
  0.1280581892140680  0.8759725088398423  0.6232369109364259
 -0.0008987425822106 -0.0033829430139135 -0.0001799576022090
  0.0012072856866832 -0.0032623182400260  0.7526037964233612
  0.0047602830954243  0.7502405332582721  0.7534986941131899
  0.0029179847476840  0.7504880397826579 -0.0017215261969787
  0.7484391468115107  0.0034297159119946  0.7486995449409077
  0.7528091002472830  0.0003664008871179  0.0013609765079412
 -0.0012003428601071 -0.0003537394772839  0.5010115719176155
 -0.0019809113264586  0.7500921503422283  0.4986061323670498
  0.7489262149934249  0.0005914704166374  0.5018325364991465
  0.0030184250221310  0.4991206380035444 -0.0010900710748678
  0.4952217269918756  0.4961013258353226 -0.0006732388237082
  0.5015629998248332 -0.0002775781455741  0.5042120097267813
  0.5002305547942474  0.0000338709122860  0.7480724416452650
  0.5011012059844292  0.0018861959565667 -0.0004628098932832
 -0.0022261886223697 -0.0028599145416008  0.2482420874352881
 -0.0023783700990626  0.7502115768569048  0.2492267496499642
  0.7522488298224308 -0.0019420395320225  0.2480304802962573
 -0.0028914918415195  0.5012312159808692  0.2478069671998843
  0.5017320508674127  0.0002349522510449  0.2503813057930690
  0.0029094684981779  0.2479806073212560  0.5007594805407323
  0.0008286796458163  0.2533031478446664 -0.0004049751396935
  0.7533893082969204  0.2511955921042968  0.0012065284101437
  0.4964392004682139  0.2527297934675483 -0.0002608600085243
  0.2488337227503240  0.4984729937736271 -0.0023156879467076
  0.2448952754501487  0.7486746451779595 -0.0029895294125059
  0.2496537001383869 -0.0000143635632964  0.2500720429121655
  0.2508645059945681 -0.0008652197303544  0.5023973936513709
  0.2496592988145124 -0.0026756959944460  0.7510482126309281
  0.3732943261756447  0.6270635400813241  0.3759146922886348
  0.7501819131382716  0.7493770865389523  0.7494867276345093
  0.7497091852719195  0.2493123510000010  0.5009034945256996
  0.2513551249945322  0.7491720291896299  0.5010559812837687
  0.8767667164940466  0.6230384899745339  0.3752645436703344
  0.3731666776369019  0.3734935413412677  0.8758309849369006
  0.3710910374299157  0.8760537022266531  0.6249370693325141
  0.8743056113006297  0.8730053497521855  0.1223981688022075
  0.8762265306847429  0.3764254628580911  0.1239252327085906
  0.3730967404482420  0.3738042880443433  0.1243002551508103
  0.6256418185151090  0.1260268761105871  0.6245503216654714
  0.1227096091741834  0.3730306939804740  0.8742700569337942
  0.1230736547754327  0.6230748230137813  0.8735508857074699
  0.1272242694024053  0.8776169563439635  0.8752206590297579
  0.7519494336269544  0.7510561860082416  0.0010017365988243
 -0.0008473485624081  0.5011605237441772  0.4983897317087195
  0.0024397933366749  0.5011627167526727  0.7527845296948654
  0.7515643678220549  0.4989689558167867  0.0000309830349018
  0.4985995482669939  0.7499511885655330 -0.0005496481975626
  0.0006422474768185  0.2509907921113420  0.2483979176098300
  0.0025342630576069  0.2509351504156885  0.7519058465095508
  0.2499767036428545  0.2533910442035316 -0.0006242278865243
  0.2478760779892992 -0.0015218164646085 -0.0010310152193761
 
  0.00000000E+00  0.00000000E+00  0.00000000E+00
  0.00000000E+00  0.00000000E+00  0.00000000E+00
  0.00000000E+00  0.00000000E+00  0.00000000E+00
  0.00000000E+00  0.00000000E+00  0.00000000E+00
  0.00000000E+00  0.00000000E+00  0.00000000E+00
  0.00000000E+00  0.00000000E+00  0.00000000E+00
  0.00000000E+00  0.00000000E+00  0.00000000E+00
  0.00000000E+00  0.00000000E+00  0.00000000E+00
  0.00000000E+00  0.00000000E+00  0.00000000E+00
  0.00000000E+00  0.00000000E+00  0.00000000E+00
  0.00000000E+00  0.00000000E+00  0.00000000E+00
  0.00000000E+00  0.00000000E+00  0.00000000E+00
  0.00000000E+00  0.00000000E+00  0.00000000E+00
  0.00000000E+00  0.00000000E+00  0.00000000E+00
  0.00000000E+00  0.00000000E+00  0.00000000E+00
  0.00000000E+00  0.00000000E+00  0.00000000E+00
  0.00000000E+00  0.00000000E+00  0.00000000E+00
  0.00000000E+00  0.00000000E+00  0.00000000E+00
  0.00000000E+00  0.00000000E+00  0.00000000E+00
  0.00000000E+00  0.00000000E+00  0.00000000E+00
  0.00000000E+00  0.00000000E+00  0.00000000E+00
  0.00000000E+00  0.00000000E+00  0.00000000E+00
  0.00000000E+00  0.00000000E+00  0.00000000E+00
  0.00000000E+00  0.00000000E+00  0.00000000E+00
  0.00000000E+00  0.00000000E+00  0.00000000E+00
  0.00000000E+00  0.00000000E+00  0.00000000E+00
  0.00000000E+00  0.00000000E+00  0.00000000E+00
  0.00000000E+00  0.00000000E+00  0.00000000E+00
  0.00000000E+00  0.00000000E+00  0.00000000E+00
  0.00000000E+00  0.00000000E+00  0.00000000E+00
  0.00000000E+00  0.00000000E+00  0.00000000E+00
  0.00000000E+00  0.00000000E+00  0.00000000E+00
  0.00000000E+00  0.00000000E+00  0.00000000E+00
  0.00000000E+00  0.00000000E+00  0.00000000E+00
  0.00000000E+00  0.00000000E+00  0.00000000E+00
  0.00000000E+00  0.00000000E+00  0.00000000E+00
  0.00000000E+00  0.00000000E+00  0.00000000E+00
  0.00000000E+00  0.00000000E+00  0.00000000E+00
  0.00000000E+00  0.00000000E+00  0.00000000E+00
  0.00000000E+00  0.00000000E+00  0.00000000E+00
  0.00000000E+00  0.00000000E+00  0.00000000E+00
  0.00000000E+00  0.00000000E+00  0.00000000E+00
  0.00000000E+00  0.00000000E+00  0.00000000E+00
  0.00000000E+00  0.00000000E+00  0.00000000E+00
  0.00000000E+00  0.00000000E+00  0.00000000E+00
  0.00000000E+00  0.00000000E+00  0.00000000E+00
  0.00000000E+00  0.00000000E+00  0.00000000E+00
  0.00000000E+00  0.00000000E+00  0.00000000E+00
  0.00000000E+00  0.00000000E+00  0.00000000E+00
  0.00000000E+00  0.00000000E+00  0.00000000E+00
  0.00000000E+00  0.00000000E+00  0.00000000E+00
  0.00000000E+00  0.00000000E+00  0.00000000E+00
  0.00000000E+00  0.00000000E+00  0.00000000E+00
  0.00000000E+00  0.00000000E+00  0.00000000E+00
  0.00000000E+00  0.00000000E+00  0.00000000E+00
  0.00000000E+00  0.00000000E+00  0.00000000E+00
  0.00000000E+00  0.00000000E+00  0.00000000E+00
  0.00000000E+00  0.00000000E+00  0.00000000E+00
  0.00000000E+00  0.00000000E+00  0.00000000E+00
  0.00000000E+00  0.00000000E+00  0.00000000E+00
  0.00000000E+00  0.00000000E+00  0.00000000E+00
  0.00000000E+00  0.00000000E+00  0.00000000E+00
  0.00000000E+00  0.00000000E+00  0.00000000E+00
  0.00000000E+00  0.00000000E+00  0.00000000E+00
  0.00000000E+00  0.00000000E+00  0.00000000E+00
  0.00000000E+00  0.00000000E+00  0.00000000E+00
  0.00000000E+00  0.00000000E+00  0.00000000E+00
  0.00000000E+00  0.00000000E+00  0.00000000E+00
  0.00000000E+00  0.00000000E+00  0.00000000E+00
  0.00000000E+00  0.00000000E+00  0.00000000E+00
  0.00000000E+00  0.00000000E+00  0.00000000E+00
  0.00000000E+00  0.00000000E+00  0.00000000E+00
  0.00000000E+00  0.00000000E+00  0.00000000E+00
  0.00000000E+00  0.00000000E+00  0.00000000E+00
  0.00000000E+00  0.00000000E+00  0.00000000E+00
  0.00000000E+00  0.00000000E+00  0.00000000E+00
  0.00000000E+00  0.00000000E+00  0.00000000E+00
  0.00000000E+00  0.00000000E+00  0.00000000E+00
  0.00000000E+00  0.00000000E+00  0.00000000E+00
  0.00000000E+00  0.00000000E+00  0.00000000E+00
  0.00000000E+00  0.00000000E+00  0.00000000E+00
  0.00000000E+00  0.00000000E+00  0.00000000E+00
  0.00000000E+00  0.00000000E+00  0.00000000E+00
  0.00000000E+00  0.00000000E+00  0.00000000E+00
  0.00000000E+00  0.00000000E+00  0.00000000E+00
  0.00000000E+00  0.00000000E+00  0.00000000E+00
  0.00000000E+00  0.00000000E+00  0.00000000E+00
  0.00000000E+00  0.00000000E+00  0.00000000E+00
  0.00000000E+00  0.00000000E+00  0.00000000E+00
  0.00000000E+00  0.00000000E+00  0.00000000E+00
  0.00000000E+00  0.00000000E+00  0.00000000E+00
  0.00000000E+00  0.00000000E+00  0.00000000E+00
  0.00000000E+00  0.00000000E+00  0.00000000E+00
  0.00000000E+00  0.00000000E+00  0.00000000E+00
  0.00000000E+00  0.00000000E+00  0.00000000E+00
  0.00000000E+00  0.00000000E+00  0.00000000E+00
  0.00000000E+00  0.00000000E+00  0.00000000E+00
  0.00000000E+00  0.00000000E+00  0.00000000E+00
  0.00000000E+00  0.00000000E+00  0.00000000E+00
  0.00000000E+00  0.00000000E+00  0.00000000E+00
  0.00000000E+00  0.00000000E+00  0.00000000E+00
  0.00000000E+00  0.00000000E+00  0.00000000E+00
  0.00000000E+00  0.00000000E+00  0.00000000E+00
  0.00000000E+00  0.00000000E+00  0.00000000E+00
  0.00000000E+00  0.00000000E+00  0.00000000E+00
  0.00000000E+00  0.00000000E+00  0.00000000E+00
  0.00000000E+00  0.00000000E+00  0.00000000E+00
  0.00000000E+00  0.00000000E+00  0.00000000E+00
  0.00000000E+00  0.00000000E+00  0.00000000E+00
  0.00000000E+00  0.00000000E+00  0.00000000E+00
  0.00000000E+00  0.00000000E+00  0.00000000E+00
  0.00000000E+00  0.00000000E+00  0.00000000E+00
  0.00000000E+00  0.00000000E+00  0.00000000E+00
  0.00000000E+00  0.00000000E+00  0.00000000E+00
  0.00000000E+00  0.00000000E+00  0.00000000E+00
  0.00000000E+00  0.00000000E+00  0.00000000E+00
  0.00000000E+00  0.00000000E+00  0.00000000E+00
  0.00000000E+00  0.00000000E+00  0.00000000E+00
  0.00000000E+00  0.00000000E+00  0.00000000E+00
  0.00000000E+00  0.00000000E+00  0.00000000E+00
  0.00000000E+00  0.00000000E+00  0.00000000E+00
  0.00000000E+00  0.00000000E+00  0.00000000E+00
  0.00000000E+00  0.00000000E+00  0.00000000E+00
  0.00000000E+00  0.00000000E+00  0.00000000E+00
  0.00000000E+00  0.00000000E+00  0.00000000E+00
  0.00000000E+00  0.00000000E+00  0.00000000E+00
  0.00000000E+00  0.00000000E+00  0.00000000E+00
  0.00000000E+00  0.00000000E+00  0.00000000E+00
