#generated using str2pos                
    1.000000000000000     
    13.0818491652159992   -0.0026155398473816   -0.0163520461576280
    -0.0026166871029679   13.0801749621405925   -0.0022339766817586
    -0.0163538143086778   -0.0022348722133609   13.0764842290297203
   Ta   W 
    96    32
Direct
  0.2474174435611087  0.2503567683870225  0.2507240984011117
  0.1265122775434530  0.1246696793397500  0.1205057698751541
  0.3746402631238604  0.1253995765851547  0.1254145789953051
  0.7546017596411365  0.2500694552152170  0.2468257131298333
  0.6243854137873217  0.1231992958781758  0.1290410988500139
 -0.0009078701192629  0.2479801197496793  0.2512942358142974
  0.2499104299427669  0.4993520606610569  0.2496665727044345
  0.1239982321795212  0.3712041406895659  0.1235392184963332
  0.4991734130256147  0.4984747380045365  0.2494000972059195
  0.7502945915536582  0.4955721889497386  0.2459025805981631
  0.0016491592139510  0.4974766146998125  0.2471507790985804
  0.2523662802771554  0.7487440396054179  0.2496177547219029
  0.4957274897663102  0.7498928980556679  0.2524955888035972
  0.3782156462090269  0.6222483525397543  0.1225035346189025
  0.7499081889494459  0.7475008668659919  0.2523067826115458
  0.6246600502506681  0.6253871225294662  0.1231957274689988
  0.0028618522801551  0.7477082447378357  0.2481027939108936
  0.8725910377202518  0.6270821424253997  0.1234231439826201
  0.2507989675951287 -0.0018946660278508  0.2520328246951701
  0.1250950719055217  0.8787086783788389  0.1237350333391006
  0.4962503268723700 -0.0047910369063742  0.2506938882832939
  0.6290347333450373  0.8742747886810995  0.1258917740630939
  0.0001707680950558  0.0042283523419613  0.2519125105598085
  0.8724187636048808  0.8740528883136284  0.1268398076295478
  0.2462742812442890  0.2500503093720431  0.4964425248156051
  0.4985736263089934  0.2480106300485434  0.5008006745998673
  0.3759129756770507  0.1248638966438750  0.3745509671031290
  0.6259408120466822  0.1254699466096866  0.3732206536773577
  0.0029508411043052  0.2469849510327177  0.4944974900473987
  0.2505687276404112  0.4991717216776960  0.4954165096176745
  0.4962305387021475  0.5030615162659310  0.4979969641576044
  0.3776937090146805  0.3711868189253655  0.3726047554135734
  0.6272588542034805  0.3723271076259109  0.3764525380280794
  0.8734608045158508  0.3771030910271898  0.3792353856179356
  0.1226865746359699  0.6265911306710541  0.3794561343879250
  0.4998108785346409  0.7520863103643044  0.4988957415258818
  0.7489460424208972  0.7541866835147955  0.5026574784457336
  0.6279826706703854  0.6219393538040473  0.3756467171500075
  0.8768224911814094  0.6221563129801049  0.3789994263323445
  0.1244859026626588  0.8722519966607192  0.3800354117462078
  0.5008212362950302 -0.0041708246551459  0.4988067373707575
  0.7514231583953451 -0.0025133819231802  0.5033740334154841
  0.6276661239902948  0.8762843054755396  0.3724495425884154
 -0.0029012270772013  0.0025837895156326  0.4993277133225622
  0.8761624826378195  0.8732750519329826  0.3741426760454707
  0.2490756488301263  0.2536008308332841  0.7516652050781554
  0.1256141289755116  0.1232165421019715  0.6277384319518120
  0.4997192646003833  0.2506671677514814  0.7495475966020750
  0.3721087748099748  0.1198746769696224  0.6260663796664891
  0.7488894405775454  0.2498900022291546  0.7512539817162106
  0.6246815905729324  0.1253759582190290  0.6245058578325312
  0.8754640261600675  0.1295743270421151  0.6256669738295880
  0.2471961079890645  0.4983281551293594  0.7511189949849323
  0.1208016521942174  0.3756247676190484  0.6239169756899701
  0.5003805980776367  0.5024283454354636  0.7480778044986461
  0.3736824942587870  0.3751926817480754  0.6237840455016946
  0.7505206592249463  0.5000190924407033  0.7522546969706515
  0.6286561065265818  0.3755588150748225  0.6211507293569629
  0.0011735830552900  0.5011997185163847  0.7523681623435182
  0.8758372315752656  0.3754723408706082  0.6222107004410857
  0.1233669519120976  0.6287696299491730  0.6224860621676485
  0.5019366915701776  0.7511901041863821  0.7476187644812312
  0.3700933215524805  0.6297837523160829  0.6257209792655214
  0.6283428531257202  0.6247157419443160  0.6245243628556172
 -0.0042568545276974  0.7546389292121864  0.7509915066397482
  0.8753179180124765  0.6240329006720137  0.6230445651161037
  0.1281235282767843  0.8748554845248823  0.6239156235689445
  0.3697339161695253  0.8762955418883811  0.6268730993161373
  0.7519308763926550 -0.0022536162960068  0.7489802578636073
 -0.0047410488900911 -0.0034513050177515  0.7488788500149107
  0.2516265310889914  0.2542497785217130 -0.0002446606924460
  0.1254859602218250  0.1244390198369596  0.8745843966137941
  0.5002614150179407  0.2511613012053511  0.0022870964547263
  0.3730588224029779  0.1210699711383341  0.8744410617700552
  0.7509552309130123  0.2506757225045966  0.0046882427939771
  0.6230562850845640  0.1231229906452838  0.8745172975452087
  0.8788102351283289  0.1300370985193236  0.8740725710190133
  0.2480002047473464  0.4996606282100683  0.0014356090648805
  0.3778794190659306  0.3782087249602620  0.8764124310191206
  0.7517814045436163  0.4956762039003014  0.0027858676573805
  0.6240780924587703  0.3770154212827095  0.8764654306493597
  0.0019981105594062  0.5000406099655564  0.0008340029114336
  0.8778170522192749  0.3723044320704910  0.8738834558793204
  0.2504970621886409  0.7491629097021041  0.0041315589540412
  0.1268761336893484  0.6292542161265847  0.8719346408853040
  0.4972355989370206  0.7533221221877526  0.0017608766478550
  0.3749424831442943  0.6267602597313968  0.8744411482334764
  0.6263876992965761  0.6273441656987337  0.8772089406641636
  0.0014263038544754  0.7512144200661337 -0.0006263243230098
  0.8723585332241137  0.6270898850421753  0.8756539382922041
  0.1296091156422339  0.8777148390128173  0.8734205028547711
  0.4998452571738450 -0.0020883130365294  0.0028182199833997
  0.3722139482302269  0.8779618086022648  0.8713248035405713
  0.7533035091286202  0.0020783144914144 -0.0007882032868969
  0.6250420995497945  0.8740412063620887  0.8752123072312128
 -0.0038794354191071  0.0002720836246143 -0.0007972733834190
  0.5007986297098932  0.2508943021431692  0.2479710747925929
  0.8758898302349746  0.1242263287897619  0.1248081816607856
  0.3765420653301982  0.3745634521355412  0.1254811545513986
  0.6234244504937657  0.3739375855716141  0.1261031303516723
  0.8778372998220857  0.3733616735553909  0.1241307630821835
  0.1255406055267426  0.6245692382500223  0.1253216777292578
  0.3738439791113527  0.8757499234293430  0.1240332399303767
  0.7527943117716246  0.0026633090091075  0.2510485029944251
  0.1263252433678769  0.1222466611107136  0.3758017863653422
  0.7522335773587147  0.2469932725322231  0.4979414041943695
  0.8726239621522478  0.1252739920893101  0.3753642251491598
  0.1232272796897750  0.3763379473688167  0.3743431897890571
  0.7498960184884438  0.5005485075489691  0.4999723613548584
  0.0019498313296034  0.4982600629967657  0.4988684889057315
  0.2517581338138215  0.7497967103555681  0.4973086899939740
  0.3732569971601021  0.6252226791912826  0.3755472597264892
 -0.0020093335022246  0.7524683981234431  0.5025557734046374
  0.2488710770175424  0.0001406328516953  0.4972193885514072
  0.3718766164547176  0.8748552627518825  0.3785512973211131
  0.0016458058753982  0.2508445818944744  0.7498967729722529
  0.2489599081773443  0.7503082842529873  0.7500245945296876
  0.7506740395529450  0.7538718556251661  0.7483660315584977
  0.2481863938573770  0.0015331654916818  0.7496367036478783
  0.5021066692655595 -0.0015802994623357  0.7483177693664018
  0.6236826894446343  0.8752431814718747  0.6274534081005819
  0.8755272861050359  0.8733451452299067  0.6247676238352315
  0.0000473178656623  0.2510255167552924  0.0015117057620586
  0.1230415453136157  0.3734196414032040  0.8751006891319321
  0.5004923420097429  0.4987382030140222  0.0023226112145215
  0.7507556520034148  0.7513088614140208 -0.0010204354453156
  0.2506795741508240 -0.0003198999655231  0.0019331834061431
  0.8726578728033835  0.8739633900669551  0.8758732220713624
 
  0.00000000E+00  0.00000000E+00  0.00000000E+00
  0.00000000E+00  0.00000000E+00  0.00000000E+00
  0.00000000E+00  0.00000000E+00  0.00000000E+00
  0.00000000E+00  0.00000000E+00  0.00000000E+00
  0.00000000E+00  0.00000000E+00  0.00000000E+00
  0.00000000E+00  0.00000000E+00  0.00000000E+00
  0.00000000E+00  0.00000000E+00  0.00000000E+00
  0.00000000E+00  0.00000000E+00  0.00000000E+00
  0.00000000E+00  0.00000000E+00  0.00000000E+00
  0.00000000E+00  0.00000000E+00  0.00000000E+00
  0.00000000E+00  0.00000000E+00  0.00000000E+00
  0.00000000E+00  0.00000000E+00  0.00000000E+00
  0.00000000E+00  0.00000000E+00  0.00000000E+00
  0.00000000E+00  0.00000000E+00  0.00000000E+00
  0.00000000E+00  0.00000000E+00  0.00000000E+00
  0.00000000E+00  0.00000000E+00  0.00000000E+00
  0.00000000E+00  0.00000000E+00  0.00000000E+00
  0.00000000E+00  0.00000000E+00  0.00000000E+00
  0.00000000E+00  0.00000000E+00  0.00000000E+00
  0.00000000E+00  0.00000000E+00  0.00000000E+00
  0.00000000E+00  0.00000000E+00  0.00000000E+00
  0.00000000E+00  0.00000000E+00  0.00000000E+00
  0.00000000E+00  0.00000000E+00  0.00000000E+00
  0.00000000E+00  0.00000000E+00  0.00000000E+00
  0.00000000E+00  0.00000000E+00  0.00000000E+00
  0.00000000E+00  0.00000000E+00  0.00000000E+00
  0.00000000E+00  0.00000000E+00  0.00000000E+00
  0.00000000E+00  0.00000000E+00  0.00000000E+00
  0.00000000E+00  0.00000000E+00  0.00000000E+00
  0.00000000E+00  0.00000000E+00  0.00000000E+00
  0.00000000E+00  0.00000000E+00  0.00000000E+00
  0.00000000E+00  0.00000000E+00  0.00000000E+00
  0.00000000E+00  0.00000000E+00  0.00000000E+00
  0.00000000E+00  0.00000000E+00  0.00000000E+00
  0.00000000E+00  0.00000000E+00  0.00000000E+00
  0.00000000E+00  0.00000000E+00  0.00000000E+00
  0.00000000E+00  0.00000000E+00  0.00000000E+00
  0.00000000E+00  0.00000000E+00  0.00000000E+00
  0.00000000E+00  0.00000000E+00  0.00000000E+00
  0.00000000E+00  0.00000000E+00  0.00000000E+00
  0.00000000E+00  0.00000000E+00  0.00000000E+00
  0.00000000E+00  0.00000000E+00  0.00000000E+00
  0.00000000E+00  0.00000000E+00  0.00000000E+00
  0.00000000E+00  0.00000000E+00  0.00000000E+00
  0.00000000E+00  0.00000000E+00  0.00000000E+00
  0.00000000E+00  0.00000000E+00  0.00000000E+00
  0.00000000E+00  0.00000000E+00  0.00000000E+00
  0.00000000E+00  0.00000000E+00  0.00000000E+00
  0.00000000E+00  0.00000000E+00  0.00000000E+00
  0.00000000E+00  0.00000000E+00  0.00000000E+00
  0.00000000E+00  0.00000000E+00  0.00000000E+00
  0.00000000E+00  0.00000000E+00  0.00000000E+00
  0.00000000E+00  0.00000000E+00  0.00000000E+00
  0.00000000E+00  0.00000000E+00  0.00000000E+00
  0.00000000E+00  0.00000000E+00  0.00000000E+00
  0.00000000E+00  0.00000000E+00  0.00000000E+00
  0.00000000E+00  0.00000000E+00  0.00000000E+00
  0.00000000E+00  0.00000000E+00  0.00000000E+00
  0.00000000E+00  0.00000000E+00  0.00000000E+00
  0.00000000E+00  0.00000000E+00  0.00000000E+00
  0.00000000E+00  0.00000000E+00  0.00000000E+00
  0.00000000E+00  0.00000000E+00  0.00000000E+00
  0.00000000E+00  0.00000000E+00  0.00000000E+00
  0.00000000E+00  0.00000000E+00  0.00000000E+00
  0.00000000E+00  0.00000000E+00  0.00000000E+00
  0.00000000E+00  0.00000000E+00  0.00000000E+00
  0.00000000E+00  0.00000000E+00  0.00000000E+00
  0.00000000E+00  0.00000000E+00  0.00000000E+00
  0.00000000E+00  0.00000000E+00  0.00000000E+00
  0.00000000E+00  0.00000000E+00  0.00000000E+00
  0.00000000E+00  0.00000000E+00  0.00000000E+00
  0.00000000E+00  0.00000000E+00  0.00000000E+00
  0.00000000E+00  0.00000000E+00  0.00000000E+00
  0.00000000E+00  0.00000000E+00  0.00000000E+00
  0.00000000E+00  0.00000000E+00  0.00000000E+00
  0.00000000E+00  0.00000000E+00  0.00000000E+00
  0.00000000E+00  0.00000000E+00  0.00000000E+00
  0.00000000E+00  0.00000000E+00  0.00000000E+00
  0.00000000E+00  0.00000000E+00  0.00000000E+00
  0.00000000E+00  0.00000000E+00  0.00000000E+00
  0.00000000E+00  0.00000000E+00  0.00000000E+00
  0.00000000E+00  0.00000000E+00  0.00000000E+00
  0.00000000E+00  0.00000000E+00  0.00000000E+00
  0.00000000E+00  0.00000000E+00  0.00000000E+00
  0.00000000E+00  0.00000000E+00  0.00000000E+00
  0.00000000E+00  0.00000000E+00  0.00000000E+00
  0.00000000E+00  0.00000000E+00  0.00000000E+00
  0.00000000E+00  0.00000000E+00  0.00000000E+00
  0.00000000E+00  0.00000000E+00  0.00000000E+00
  0.00000000E+00  0.00000000E+00  0.00000000E+00
  0.00000000E+00  0.00000000E+00  0.00000000E+00
  0.00000000E+00  0.00000000E+00  0.00000000E+00
  0.00000000E+00  0.00000000E+00  0.00000000E+00
  0.00000000E+00  0.00000000E+00  0.00000000E+00
  0.00000000E+00  0.00000000E+00  0.00000000E+00
  0.00000000E+00  0.00000000E+00  0.00000000E+00
  0.00000000E+00  0.00000000E+00  0.00000000E+00
  0.00000000E+00  0.00000000E+00  0.00000000E+00
  0.00000000E+00  0.00000000E+00  0.00000000E+00
  0.00000000E+00  0.00000000E+00  0.00000000E+00
  0.00000000E+00  0.00000000E+00  0.00000000E+00
  0.00000000E+00  0.00000000E+00  0.00000000E+00
  0.00000000E+00  0.00000000E+00  0.00000000E+00
  0.00000000E+00  0.00000000E+00  0.00000000E+00
  0.00000000E+00  0.00000000E+00  0.00000000E+00
  0.00000000E+00  0.00000000E+00  0.00000000E+00
  0.00000000E+00  0.00000000E+00  0.00000000E+00
  0.00000000E+00  0.00000000E+00  0.00000000E+00
  0.00000000E+00  0.00000000E+00  0.00000000E+00
  0.00000000E+00  0.00000000E+00  0.00000000E+00
  0.00000000E+00  0.00000000E+00  0.00000000E+00
  0.00000000E+00  0.00000000E+00  0.00000000E+00
  0.00000000E+00  0.00000000E+00  0.00000000E+00
  0.00000000E+00  0.00000000E+00  0.00000000E+00
  0.00000000E+00  0.00000000E+00  0.00000000E+00
  0.00000000E+00  0.00000000E+00  0.00000000E+00
  0.00000000E+00  0.00000000E+00  0.00000000E+00
  0.00000000E+00  0.00000000E+00  0.00000000E+00
  0.00000000E+00  0.00000000E+00  0.00000000E+00
  0.00000000E+00  0.00000000E+00  0.00000000E+00
  0.00000000E+00  0.00000000E+00  0.00000000E+00
  0.00000000E+00  0.00000000E+00  0.00000000E+00
  0.00000000E+00  0.00000000E+00  0.00000000E+00
  0.00000000E+00  0.00000000E+00  0.00000000E+00
  0.00000000E+00  0.00000000E+00  0.00000000E+00
  0.00000000E+00  0.00000000E+00  0.00000000E+00
  0.00000000E+00  0.00000000E+00  0.00000000E+00
  0.00000000E+00  0.00000000E+00  0.00000000E+00
