#BCC aalvarado POSCAR generator         
    12.76000000000000     
     1.0268994798960089   -0.0002274741725498   -0.0003867643964813
    -0.0002273626756961    1.0274467806865433   -0.0000939186939601
    -0.0003866814263898   -0.0000939458743089    1.0273828477570450
   Ta   W 
   102    26
Direct
  0.5017074877037599  0.5012444572699259  0.5011029979183804
  0.6247401099323736  0.6251713204047538  0.3704846631065685
  0.6263032966562160  0.3757399480568575  0.3730996901924685
  0.3717083522403949  0.3753095584572149  0.3748950085309598
  0.6264206596964603  0.3753558552803572  0.6261340357456321
  0.3719383760411093  0.3751556944591372  0.6239104256629798
  0.3729057833495484  0.6228912065661854  0.3737833956596704
  0.3702961761344233  0.6252723473502599  0.6236089328012008
  0.7497609961387476  0.7525983705629338  0.7462688502246434
  0.7481889136694964  0.7495604963696849  0.5030798499130174
  0.7477457322042568  0.5020693948677011  0.5013716166316349
  0.4997888668608810  0.5007422497165281  0.7486962602647215
  0.5007700766138657  0.7474625078285967  0.5020316593203107
  0.5031127900591149  0.7476082181010330  0.7476947712395959
  0.7510095186443273  0.7524301194101980  0.2511325843366490
  0.4972998572121536  0.4952222775710064  0.2474040535566450
  0.7498218278680605  0.2450866404843946  0.2521537153925684
  0.5008946690130508  0.2498265081902466  0.2485202503870672
  0.7496885556261565  0.2472995201370386  0.4996643830987016
  0.4994772394395154  0.2484949168404734  0.5020881763236837
  0.2501445146287188  0.2483229755329376  0.4995429065679337
  0.7474888209082792  0.2463964605757703  0.7471115060077237
  0.5011164331207714  0.2477724194091212  0.7457828569988660
  0.2502403455293279  0.4997331364768082  0.7512093550180785
  0.2486449591699700  0.7500844818422718  0.2510720226767058
  0.2513784746219034  0.7520157885625226  0.4978226894614477
  0.8758274948301411  0.8777783772097847  0.8735298034600995
  0.8765282241319367  0.6243435907539628  0.6238058005573316
  0.8731545686485779  0.6233540811071798  0.8729241760096228
  0.6267021788104964  0.6231516613884400  0.8744301162912033
  0.6224483043622486  0.8796260186897898  0.6236384581656274
  0.6220922395612009  0.8792824999999014  0.8741649101990190
  0.8741449100481318  0.8735506657033293  0.3781681185901040
  0.8768206853564001  0.6238580595091392  0.3746523787066979
  0.6233497541689491  0.8763782631662478  0.3772038765339739
  0.8738508755888136  0.3786097882169152  0.3723301564819516
  0.8734785472237833  0.3761022146721582  0.6260506273638877
  0.8714195717531815  0.3739014431098569  0.8752087129130882
  0.6255277012374816  0.3716565927216803  0.8768781830170510
  0.3763562641767138  0.3704052165120841  0.8738620890740261
  0.3737970822913589  0.6268352451224473  0.8733824123772096
  0.3772868556899865  0.8768784745592199  0.3740289803379835
  0.3768131257159173  0.8758455159742897  0.6258863306768910
  0.3768637039702347  0.8773112419694419  0.8727262412343897
  0.8744325445116536  0.8756031619867238  0.1251435061438203
  0.8751805718016336  0.6212795365938409  0.1287364015777571
  0.6247448843614846  0.6246339799378854  0.1282064255631425
  0.6216031922788321  0.8748378863380842  0.1248702243089445
  0.8737500309739518  0.3759905309922052  0.1266951871275497
  0.6274086418776993  0.3730035367612186  0.1233749750578150
  0.3752871191095172  0.6256213393699200  0.1285427605640661
  0.3770093673931965  0.8774212995223529  0.1262001368065196
  0.8739331887829552  0.1280009357304412  0.1224265956473941
  0.6230082633727850  0.1221183096841889  0.3785611256704496
  0.3754143599368956  0.1245911636879988  0.1246473522563973
  0.3741780063496402  0.1241613642282780  0.3728132374741565
  0.8756491901867423  0.1230335826201105  0.6259740083942154
  0.1291008247794431  0.1265938033130561  0.1289195340765019
  0.1294573632832289  0.1245666934505727  0.3729563828780401
  0.1257637649252190  0.3759959451393994  0.1299665249690749
  0.1237654540023407  0.1250832163580666  0.6275054065136429
  0.1275601027274888  0.3739611285960352  0.6245342730201203
  0.1250028668894565  0.6206767728837915  0.1295163567226104
  0.1240981069149066  0.6227966133914224  0.3761893659312928
  0.1257323058353142  0.6271495561810601  0.6219423881844661
  0.8741589057049994  0.1252719976408093  0.8748451007809215
  0.6220895127962222  0.1247112287600395  0.8772840130623726
  0.3790429598721320  0.1250957296770993  0.8757565408445683
  0.1258620955623104  0.1255907186300405  0.8714960121644055
  0.1275068430104987  0.3727261662028279  0.8737901642119005
  0.1266935509984391  0.6271375697743145  0.8733101073368231
  0.1275746844877467  0.8778583611951803  0.1276779575749787
  0.1250251523849115  0.8756800646404120  0.3766272239393446
  0.1241130916352487  0.8738041502826041  0.6252914584729249
  0.1253226865765645  0.8758132236103722  0.8708963198078626
  0.0014538960965073  0.0012296754136331  0.0014863132869452
 -0.0034098131411314  0.7505993003635251  0.7486444587579809
  0.0004699195368766  0.7495178160368687  0.0006876965309055
  0.7497421724705696  0.7506012167735200 -0.0007609076082591
  0.7487730476925631  0.0001986380460666  0.7479063558679035
  0.7491795977304617  0.0004116624117754  0.0015732732334881
 -0.0021682836944781  0.0012255485998606  0.4987697853354341
  0.0007494116280680  0.4970413973595751  0.4999458213738215
  0.0018041896378352  0.4998392759687137  0.7499434584667050
  0.0012376801614228  0.4994097377092460 -0.0010657778950619
  0.7495343081377353  0.5007002477529563 -0.0001187631623495
  0.4974232624962626  0.4987579882211716  0.0014680150393367
  0.4996055319187526  0.7488483643892437 -0.0020385683171554
 -0.0034153710775915  0.0024902764479683  0.2525726697503312
  0.0003793949716469  0.7515033433884022  0.2498882314537889
  0.7495787849042653  0.0027939610826094  0.2501576976675771
  0.5033539534468804  0.0035243573335707  0.2488180185994281
 -0.0008504003451451  0.2488572220276189  0.2536465069090991
 -0.0001241909858605  0.2499346153116914  0.4964967293607986
 -0.0013757629449676  0.2512062562281924  0.7496729051659197
  0.0022032555385902  0.2508349964325541  0.0009232673440456
  0.2516986709254210  0.2516694327886626  0.0020211342332673
  0.2528691718797727  0.4981010350024332  0.0011028023513414
  0.2504784062575101  0.7502514428872001  0.0016827891394231
  0.2515019418830662  0.0018061324539905  0.5030181690350389
  0.2526831568060397  0.0020151832740350  0.7478873608777722
  0.2496353587169584  0.0006664567628092 -0.0018946657077459
  0.6260238122536517  0.6243770396509362  0.6253622711183366
  0.7481926724675493  0.5008544705393759  0.7488117295014958
  0.7491831022952823  0.4992876150872257  0.2501822592198437
  0.4995403152891217  0.7501775092916432  0.2506572718835868
  0.2509358278576160  0.2524781484991896  0.2504796926685429
  0.2504884060645951  0.4978103968750308  0.2502712342415468
  0.2484346395204837  0.4983119142916206  0.4985610873118921
  0.2523660363777225  0.2483883824743050  0.7486677758826439
  0.2503200169309904  0.7511315769847364  0.7491524044271252
  0.8752573543437794  0.8762015072516997  0.6234217443312815
  0.3745668354705195  0.3726046493815952  0.1262096932859582
  0.6233827810191229  0.1264761780761782  0.1214866680449466
  0.8732198735699954  0.1240089632757425  0.3769907812268103
  0.6241149940236708  0.1213839041827482  0.6239842532361312
  0.3760498625929473  0.1240177095352468  0.6256708238456979
  0.1267457823835811  0.3764347288942262  0.3736372345662834
 -0.0016599813961745 -0.0011915163002247  0.7478081973947170
 -0.0015399298659962  0.7512928073532564  0.5010330208931819
  0.7509379669352096  0.0003315649714978  0.5012658099489705
  0.4995707106020338  0.0021898620020270  0.5012209108917431
  0.5001141673255715  0.0027781087001905  0.7475177225156611
  0.5009043714066459  0.0013565978637773  0.0013881330245466
  0.0019106919230757  0.4979048363899210  0.2522396510210913
  0.7488073677026119  0.2484631827071119  0.0014726900231866
  0.4994006369568392  0.2502361695192449  0.0020820244213249
  0.2511958413296271  0.0001127241436289  0.2507550418715860
 
  0.00000000E+00  0.00000000E+00  0.00000000E+00
  0.00000000E+00  0.00000000E+00  0.00000000E+00
  0.00000000E+00  0.00000000E+00  0.00000000E+00
  0.00000000E+00  0.00000000E+00  0.00000000E+00
  0.00000000E+00  0.00000000E+00  0.00000000E+00
  0.00000000E+00  0.00000000E+00  0.00000000E+00
  0.00000000E+00  0.00000000E+00  0.00000000E+00
  0.00000000E+00  0.00000000E+00  0.00000000E+00
  0.00000000E+00  0.00000000E+00  0.00000000E+00
  0.00000000E+00  0.00000000E+00  0.00000000E+00
  0.00000000E+00  0.00000000E+00  0.00000000E+00
  0.00000000E+00  0.00000000E+00  0.00000000E+00
  0.00000000E+00  0.00000000E+00  0.00000000E+00
  0.00000000E+00  0.00000000E+00  0.00000000E+00
  0.00000000E+00  0.00000000E+00  0.00000000E+00
  0.00000000E+00  0.00000000E+00  0.00000000E+00
  0.00000000E+00  0.00000000E+00  0.00000000E+00
  0.00000000E+00  0.00000000E+00  0.00000000E+00
  0.00000000E+00  0.00000000E+00  0.00000000E+00
  0.00000000E+00  0.00000000E+00  0.00000000E+00
  0.00000000E+00  0.00000000E+00  0.00000000E+00
  0.00000000E+00  0.00000000E+00  0.00000000E+00
  0.00000000E+00  0.00000000E+00  0.00000000E+00
  0.00000000E+00  0.00000000E+00  0.00000000E+00
  0.00000000E+00  0.00000000E+00  0.00000000E+00
  0.00000000E+00  0.00000000E+00  0.00000000E+00
  0.00000000E+00  0.00000000E+00  0.00000000E+00
  0.00000000E+00  0.00000000E+00  0.00000000E+00
  0.00000000E+00  0.00000000E+00  0.00000000E+00
  0.00000000E+00  0.00000000E+00  0.00000000E+00
  0.00000000E+00  0.00000000E+00  0.00000000E+00
  0.00000000E+00  0.00000000E+00  0.00000000E+00
  0.00000000E+00  0.00000000E+00  0.00000000E+00
  0.00000000E+00  0.00000000E+00  0.00000000E+00
  0.00000000E+00  0.00000000E+00  0.00000000E+00
  0.00000000E+00  0.00000000E+00  0.00000000E+00
  0.00000000E+00  0.00000000E+00  0.00000000E+00
  0.00000000E+00  0.00000000E+00  0.00000000E+00
  0.00000000E+00  0.00000000E+00  0.00000000E+00
  0.00000000E+00  0.00000000E+00  0.00000000E+00
  0.00000000E+00  0.00000000E+00  0.00000000E+00
  0.00000000E+00  0.00000000E+00  0.00000000E+00
  0.00000000E+00  0.00000000E+00  0.00000000E+00
  0.00000000E+00  0.00000000E+00  0.00000000E+00
  0.00000000E+00  0.00000000E+00  0.00000000E+00
  0.00000000E+00  0.00000000E+00  0.00000000E+00
  0.00000000E+00  0.00000000E+00  0.00000000E+00
  0.00000000E+00  0.00000000E+00  0.00000000E+00
  0.00000000E+00  0.00000000E+00  0.00000000E+00
  0.00000000E+00  0.00000000E+00  0.00000000E+00
  0.00000000E+00  0.00000000E+00  0.00000000E+00
  0.00000000E+00  0.00000000E+00  0.00000000E+00
  0.00000000E+00  0.00000000E+00  0.00000000E+00
  0.00000000E+00  0.00000000E+00  0.00000000E+00
  0.00000000E+00  0.00000000E+00  0.00000000E+00
  0.00000000E+00  0.00000000E+00  0.00000000E+00
  0.00000000E+00  0.00000000E+00  0.00000000E+00
  0.00000000E+00  0.00000000E+00  0.00000000E+00
  0.00000000E+00  0.00000000E+00  0.00000000E+00
  0.00000000E+00  0.00000000E+00  0.00000000E+00
  0.00000000E+00  0.00000000E+00  0.00000000E+00
  0.00000000E+00  0.00000000E+00  0.00000000E+00
  0.00000000E+00  0.00000000E+00  0.00000000E+00
  0.00000000E+00  0.00000000E+00  0.00000000E+00
  0.00000000E+00  0.00000000E+00  0.00000000E+00
  0.00000000E+00  0.00000000E+00  0.00000000E+00
  0.00000000E+00  0.00000000E+00  0.00000000E+00
  0.00000000E+00  0.00000000E+00  0.00000000E+00
  0.00000000E+00  0.00000000E+00  0.00000000E+00
  0.00000000E+00  0.00000000E+00  0.00000000E+00
  0.00000000E+00  0.00000000E+00  0.00000000E+00
  0.00000000E+00  0.00000000E+00  0.00000000E+00
  0.00000000E+00  0.00000000E+00  0.00000000E+00
  0.00000000E+00  0.00000000E+00  0.00000000E+00
  0.00000000E+00  0.00000000E+00  0.00000000E+00
  0.00000000E+00  0.00000000E+00  0.00000000E+00
  0.00000000E+00  0.00000000E+00  0.00000000E+00
  0.00000000E+00  0.00000000E+00  0.00000000E+00
  0.00000000E+00  0.00000000E+00  0.00000000E+00
  0.00000000E+00  0.00000000E+00  0.00000000E+00
  0.00000000E+00  0.00000000E+00  0.00000000E+00
  0.00000000E+00  0.00000000E+00  0.00000000E+00
  0.00000000E+00  0.00000000E+00  0.00000000E+00
  0.00000000E+00  0.00000000E+00  0.00000000E+00
  0.00000000E+00  0.00000000E+00  0.00000000E+00
  0.00000000E+00  0.00000000E+00  0.00000000E+00
  0.00000000E+00  0.00000000E+00  0.00000000E+00
  0.00000000E+00  0.00000000E+00  0.00000000E+00
  0.00000000E+00  0.00000000E+00  0.00000000E+00
  0.00000000E+00  0.00000000E+00  0.00000000E+00
  0.00000000E+00  0.00000000E+00  0.00000000E+00
  0.00000000E+00  0.00000000E+00  0.00000000E+00
  0.00000000E+00  0.00000000E+00  0.00000000E+00
  0.00000000E+00  0.00000000E+00  0.00000000E+00
  0.00000000E+00  0.00000000E+00  0.00000000E+00
  0.00000000E+00  0.00000000E+00  0.00000000E+00
  0.00000000E+00  0.00000000E+00  0.00000000E+00
  0.00000000E+00  0.00000000E+00  0.00000000E+00
  0.00000000E+00  0.00000000E+00  0.00000000E+00
  0.00000000E+00  0.00000000E+00  0.00000000E+00
  0.00000000E+00  0.00000000E+00  0.00000000E+00
  0.00000000E+00  0.00000000E+00  0.00000000E+00
  0.00000000E+00  0.00000000E+00  0.00000000E+00
  0.00000000E+00  0.00000000E+00  0.00000000E+00
  0.00000000E+00  0.00000000E+00  0.00000000E+00
  0.00000000E+00  0.00000000E+00  0.00000000E+00
  0.00000000E+00  0.00000000E+00  0.00000000E+00
  0.00000000E+00  0.00000000E+00  0.00000000E+00
  0.00000000E+00  0.00000000E+00  0.00000000E+00
  0.00000000E+00  0.00000000E+00  0.00000000E+00
  0.00000000E+00  0.00000000E+00  0.00000000E+00
  0.00000000E+00  0.00000000E+00  0.00000000E+00
  0.00000000E+00  0.00000000E+00  0.00000000E+00
  0.00000000E+00  0.00000000E+00  0.00000000E+00
  0.00000000E+00  0.00000000E+00  0.00000000E+00
  0.00000000E+00  0.00000000E+00  0.00000000E+00
  0.00000000E+00  0.00000000E+00  0.00000000E+00
  0.00000000E+00  0.00000000E+00  0.00000000E+00
  0.00000000E+00  0.00000000E+00  0.00000000E+00
  0.00000000E+00  0.00000000E+00  0.00000000E+00
  0.00000000E+00  0.00000000E+00  0.00000000E+00
  0.00000000E+00  0.00000000E+00  0.00000000E+00
  0.00000000E+00  0.00000000E+00  0.00000000E+00
  0.00000000E+00  0.00000000E+00  0.00000000E+00
  0.00000000E+00  0.00000000E+00  0.00000000E+00
  0.00000000E+00  0.00000000E+00  0.00000000E+00
  0.00000000E+00  0.00000000E+00  0.00000000E+00
  0.00000000E+00  0.00000000E+00  0.00000000E+00
