#generated using str2pos                
    1.000000000000000     
    12.9854274761642454    0.0218986256002760    0.0023977442908811
     0.0219079107936341   12.9953290312728882   -0.0146250357529679
     0.0023942522508759   -0.0146286494875836   12.9838723079686638
   Ta   W 
    77    51
Direct
  0.1262321922677994  0.1257690152196894  0.1240793375582540
  0.5017726044853646  0.2478623313244722  0.2507372670922938
  0.3697355670130784  0.1265867844948163  0.1222034299116005
  0.7490238845127718  0.2483343856938700  0.2473007185430425
 -0.0030611571232289  0.2524749928992596  0.2486809571516023
  0.2485929463365060  0.4990458038090843  0.2497313076380075
  0.5005896153215006  0.4970459083210849  0.2503112570050601
  0.3710286207987524  0.3719970247910591  0.1236172388365634
  0.0018717409850617  0.4983574225848182  0.2486200040110839
  0.8737354666555741  0.3770287424361161  0.1227266939260162
  0.2484684903814199  0.7520891413559980  0.2497337689677890
  0.5015509899136749  0.7522146959331544  0.2524881327255387
  0.3743223744461191  0.6218453396942657  0.1249976802223548
  0.7456471414812416  0.7523416086710093  0.2521650539221526
  0.6270764142134857  0.6213731547946009  0.1241142656955340
  0.8737468693373434  0.6244936839457347  0.1249992775767114
  0.2503673939081992 -0.0027732141940255  0.2532478097525574
  0.5012722286816458  0.0008566409323002  0.2516976482332829
  0.3725921299540722  0.8771613659226493  0.1219585685500069
  0.7459199874713418  0.0017895017477098  0.2481759476286514
  0.8787976471721048  0.8729885185482457  0.1262996232210760
  0.2539391178168185  0.2502447781002600  0.5015445851035989
  0.1225514882561912  0.1246981498079704  0.3732796260329732
  0.4977737961971140  0.2494235690007391  0.4993251469471121
 -0.0006926405326053  0.2552307639687459  0.5012447934432734
  0.8767332736519269  0.1230017650312107  0.3769037229449188
  0.2508309625117799  0.4959986259419581  0.5028590996823509
  0.1263368549586678  0.3732574427114252  0.3736315614633659
  0.7526261130220727  0.5009984959699466  0.5022038659655794
  0.6266040584295189  0.3763268826521114  0.3770826797663629
 -0.0021877804822548  0.4987281310547347  0.5027860788955717
  0.2518517126460383  0.7545886933331855  0.4992026246913098
  0.1243005863087998  0.6258061149172117  0.3760511661000582
  0.5023097507288411  0.7540164758686764  0.4987532282825137
  0.3758216076293912  0.6229272488294696  0.3774372478565861
  0.7486670075817670  0.7512923886922179  0.5007056764081971
 -0.0018688904300780  0.7502666627228757  0.5019956897286920
  0.8762616086872721  0.6268473014562048  0.3721645016572187
  0.2547059151203167 -0.0002244282510982  0.4986393833305605
  0.4990842786480162  0.0001403560631668  0.4981440948920018
  0.7463776802132029 -0.0026329895638381  0.4995832619279143
  0.8787401168278094  0.8775190847971398  0.3726643533767818
  0.2520024962301040  0.2523367017970214  0.7468904281238328
  0.1220602193485204  0.1230561031388362  0.6229105293570549
  0.7505463325176102  0.2527130750587282  0.7529522215665437
  0.6263317336355868  0.1287233646389309  0.6243158746705585
 -0.0030157985696410  0.2526451421648893  0.7499733633918315
  0.8737687736979189  0.1261151407298328  0.6205513331778697
  0.2534516374825908  0.4968917868536788  0.7506362935157487
  0.4995040577150806  0.4959912769314214  0.7523621221206656
  0.1251801999152932  0.6279241675983941  0.6300004926867302
  0.3778502550962452  0.6257490779981278  0.6254409219760803
  0.6246974121532290  0.6243656251873365  0.6284424637707725
  0.2511050678221427 -0.0002555784692177  0.7474065319799114
  0.1236155145784800  0.8742561212183025  0.6266765945512675
  0.5004814063312277  0.0010418612463368  0.7465597078407225
  0.7500552053784978  0.0009162448842007  0.7497833530921486
 -0.0020394960614237 -0.0000414958712309  0.7530902871501978
  0.1270000683029776  0.1274325265835739  0.8784815859657408
  0.5042417596452619  0.2507512649103225 -0.0018724699008902
  0.3727465458619603  0.1247711059724655  0.8766416867154805
  0.7484778919739207  0.2482522049738919 -0.0016807552008782
  0.1246694189161493  0.3751584196360322  0.8778446604370134
  0.4998834263788899  0.4959704734530089 -0.0033802703747847
  0.0011342202985528  0.4990910399844796  0.0013348838136636
  0.2477027601686199  0.7482739101002316  0.0006735804073952
  0.1227405599748168  0.6243024577961689  0.8740150112815421
  0.4991922763992170  0.7479638351618622  0.0004998298775456
  0.7483057862758790  0.7515236154850055  0.0018940816018248
  0.6285256236936394  0.6244955503178141  0.8725379991699644
  0.8753957444309139  0.6251806323709609  0.8744723890191617
  0.5045222069742736  0.0016894624005641  0.0005435055741694
  0.3742248973898470  0.8744923937083159  0.8745635082590518
  0.7496809486554188  0.0039855884664478  0.0005257670104963
  0.6246433485144359  0.8706504631455837  0.8714184438164652
 -0.0013785789877840  0.0003446980563926 -0.0013197045194482
  0.8750919150781152  0.8700738691584854  0.8747080468823392
  0.2503173191838479  0.2498587085371957  0.2513861711216053
  0.6241649330226298  0.1256341028090823  0.1244350741086628
  0.8777961367623347  0.1253613978858976  0.1254269530792513
  0.1262291316214544  0.3724810428372209  0.1226072246676737
  0.7494415233193934  0.4988766328810642  0.2519898324385253
  0.6268566758153791  0.3768141805970259  0.1251030659614283
  0.1234185958537268  0.6255663524516700  0.1237872182731054
  0.0028314283568407  0.7502509136651661  0.2496061765649550
  0.1226905748746533  0.8758607239237327  0.1249932980278251
  0.6249551057232182  0.8742897487342915  0.1237849579393359
  0.0011002283204092  0.0002693622854630  0.2470636016263134
  0.3736008477634450  0.1262579222426573  0.3728202424212325
  0.7490164710211831  0.2529752091080038  0.5000438086523550
  0.6268013746261348  0.1278330491513958  0.3767704954803253
  0.5019920236908997  0.4978137377618991  0.5020991508693856
  0.3761106174408128  0.3751537213215578  0.3743519152739946
  0.8722200335349505  0.3751188464585450  0.3744368609790854
  0.6257152364652407  0.6216027227882899  0.3762409664986919
  0.1215559494113168  0.8764652061121120  0.3747968440761051
  0.3747726175500517  0.8748535827711921  0.3745586061204115
  0.6257918224824713  0.8756333570151678  0.3756616125774467
  0.0001912176346272 -0.0015760288168214  0.5002667950418611
  0.5009546904419649  0.2518460426760951  0.7489992715347155
  0.3773399248058594  0.1263081950234597  0.6263262754352755
  0.1239395083958537  0.3767286170604208  0.6272365521120900
  0.3784865843667982  0.3754565918245360  0.6255640526349046
  0.7506233996242139  0.4972548812897187  0.7485682414060938
  0.6260019777248389  0.3755314813725997  0.6247704845738229
 -0.0017538912465364  0.4985525606551080  0.7493443325793165
  0.8732916572531527  0.3769766540005270  0.6271506622639970
  0.2506497160873973  0.7502945707732132  0.7524235411636325
  0.4995214416302464  0.7496215261203754  0.7483930565900739
  0.7513260236678229  0.7500301156874982  0.7467432075427101
 -0.0012992532226670  0.7505945349449751  0.7498527031151575
  0.8748178315210339  0.6252216397107132  0.6297480164202433
  0.3752042935126678  0.8724526789447535  0.6279992216970642
  0.6252774694810589  0.8734448255789918  0.6272446707987384
  0.8761125647553378  0.8742360175939247  0.6258903450525853
  0.2496042966624754  0.2519060172049674 -0.0008886524690456
  0.6233073292683653  0.1265498434073762  0.8719027879122514
 -0.0034707899566388  0.2501297438689183 -0.0002099477656454
  0.8763614563502226  0.1263186263613664  0.8749492572011287
  0.2496420478810114  0.5005384343763130 -0.0006059291089370
  0.3742414961796033  0.3728054005072817  0.8762370442709895
  0.7493696587707162  0.4959891849119972 -0.0021141040716020
  0.6266895694142711  0.3762046059985646  0.8731788862521921
  0.8751495653944111  0.3782008132367896  0.8755535509840907
  0.3736358420721864  0.6251332181370456  0.8736309466708123
  0.0033987506341095  0.7504860726818775  0.0010532402513163
  0.2466339190117696 -0.0029890814690130 -0.0003089969761905
  0.1249274518224232  0.8726112061803704  0.8751537346547246
 
  0.00000000E+00  0.00000000E+00  0.00000000E+00
  0.00000000E+00  0.00000000E+00  0.00000000E+00
  0.00000000E+00  0.00000000E+00  0.00000000E+00
  0.00000000E+00  0.00000000E+00  0.00000000E+00
  0.00000000E+00  0.00000000E+00  0.00000000E+00
  0.00000000E+00  0.00000000E+00  0.00000000E+00
  0.00000000E+00  0.00000000E+00  0.00000000E+00
  0.00000000E+00  0.00000000E+00  0.00000000E+00
  0.00000000E+00  0.00000000E+00  0.00000000E+00
  0.00000000E+00  0.00000000E+00  0.00000000E+00
  0.00000000E+00  0.00000000E+00  0.00000000E+00
  0.00000000E+00  0.00000000E+00  0.00000000E+00
  0.00000000E+00  0.00000000E+00  0.00000000E+00
  0.00000000E+00  0.00000000E+00  0.00000000E+00
  0.00000000E+00  0.00000000E+00  0.00000000E+00
  0.00000000E+00  0.00000000E+00  0.00000000E+00
  0.00000000E+00  0.00000000E+00  0.00000000E+00
  0.00000000E+00  0.00000000E+00  0.00000000E+00
  0.00000000E+00  0.00000000E+00  0.00000000E+00
  0.00000000E+00  0.00000000E+00  0.00000000E+00
  0.00000000E+00  0.00000000E+00  0.00000000E+00
  0.00000000E+00  0.00000000E+00  0.00000000E+00
  0.00000000E+00  0.00000000E+00  0.00000000E+00
  0.00000000E+00  0.00000000E+00  0.00000000E+00
  0.00000000E+00  0.00000000E+00  0.00000000E+00
  0.00000000E+00  0.00000000E+00  0.00000000E+00
  0.00000000E+00  0.00000000E+00  0.00000000E+00
  0.00000000E+00  0.00000000E+00  0.00000000E+00
  0.00000000E+00  0.00000000E+00  0.00000000E+00
  0.00000000E+00  0.00000000E+00  0.00000000E+00
  0.00000000E+00  0.00000000E+00  0.00000000E+00
  0.00000000E+00  0.00000000E+00  0.00000000E+00
  0.00000000E+00  0.00000000E+00  0.00000000E+00
  0.00000000E+00  0.00000000E+00  0.00000000E+00
  0.00000000E+00  0.00000000E+00  0.00000000E+00
  0.00000000E+00  0.00000000E+00  0.00000000E+00
  0.00000000E+00  0.00000000E+00  0.00000000E+00
  0.00000000E+00  0.00000000E+00  0.00000000E+00
  0.00000000E+00  0.00000000E+00  0.00000000E+00
  0.00000000E+00  0.00000000E+00  0.00000000E+00
  0.00000000E+00  0.00000000E+00  0.00000000E+00
  0.00000000E+00  0.00000000E+00  0.00000000E+00
  0.00000000E+00  0.00000000E+00  0.00000000E+00
  0.00000000E+00  0.00000000E+00  0.00000000E+00
  0.00000000E+00  0.00000000E+00  0.00000000E+00
  0.00000000E+00  0.00000000E+00  0.00000000E+00
  0.00000000E+00  0.00000000E+00  0.00000000E+00
  0.00000000E+00  0.00000000E+00  0.00000000E+00
  0.00000000E+00  0.00000000E+00  0.00000000E+00
  0.00000000E+00  0.00000000E+00  0.00000000E+00
  0.00000000E+00  0.00000000E+00  0.00000000E+00
  0.00000000E+00  0.00000000E+00  0.00000000E+00
  0.00000000E+00  0.00000000E+00  0.00000000E+00
  0.00000000E+00  0.00000000E+00  0.00000000E+00
  0.00000000E+00  0.00000000E+00  0.00000000E+00
  0.00000000E+00  0.00000000E+00  0.00000000E+00
  0.00000000E+00  0.00000000E+00  0.00000000E+00
  0.00000000E+00  0.00000000E+00  0.00000000E+00
  0.00000000E+00  0.00000000E+00  0.00000000E+00
  0.00000000E+00  0.00000000E+00  0.00000000E+00
  0.00000000E+00  0.00000000E+00  0.00000000E+00
  0.00000000E+00  0.00000000E+00  0.00000000E+00
  0.00000000E+00  0.00000000E+00  0.00000000E+00
  0.00000000E+00  0.00000000E+00  0.00000000E+00
  0.00000000E+00  0.00000000E+00  0.00000000E+00
  0.00000000E+00  0.00000000E+00  0.00000000E+00
  0.00000000E+00  0.00000000E+00  0.00000000E+00
  0.00000000E+00  0.00000000E+00  0.00000000E+00
  0.00000000E+00  0.00000000E+00  0.00000000E+00
  0.00000000E+00  0.00000000E+00  0.00000000E+00
  0.00000000E+00  0.00000000E+00  0.00000000E+00
  0.00000000E+00  0.00000000E+00  0.00000000E+00
  0.00000000E+00  0.00000000E+00  0.00000000E+00
  0.00000000E+00  0.00000000E+00  0.00000000E+00
  0.00000000E+00  0.00000000E+00  0.00000000E+00
  0.00000000E+00  0.00000000E+00  0.00000000E+00
  0.00000000E+00  0.00000000E+00  0.00000000E+00
  0.00000000E+00  0.00000000E+00  0.00000000E+00
  0.00000000E+00  0.00000000E+00  0.00000000E+00
  0.00000000E+00  0.00000000E+00  0.00000000E+00
  0.00000000E+00  0.00000000E+00  0.00000000E+00
  0.00000000E+00  0.00000000E+00  0.00000000E+00
  0.00000000E+00  0.00000000E+00  0.00000000E+00
  0.00000000E+00  0.00000000E+00  0.00000000E+00
  0.00000000E+00  0.00000000E+00  0.00000000E+00
  0.00000000E+00  0.00000000E+00  0.00000000E+00
  0.00000000E+00  0.00000000E+00  0.00000000E+00
  0.00000000E+00  0.00000000E+00  0.00000000E+00
  0.00000000E+00  0.00000000E+00  0.00000000E+00
  0.00000000E+00  0.00000000E+00  0.00000000E+00
  0.00000000E+00  0.00000000E+00  0.00000000E+00
  0.00000000E+00  0.00000000E+00  0.00000000E+00
  0.00000000E+00  0.00000000E+00  0.00000000E+00
  0.00000000E+00  0.00000000E+00  0.00000000E+00
  0.00000000E+00  0.00000000E+00  0.00000000E+00
  0.00000000E+00  0.00000000E+00  0.00000000E+00
  0.00000000E+00  0.00000000E+00  0.00000000E+00
  0.00000000E+00  0.00000000E+00  0.00000000E+00
  0.00000000E+00  0.00000000E+00  0.00000000E+00
  0.00000000E+00  0.00000000E+00  0.00000000E+00
  0.00000000E+00  0.00000000E+00  0.00000000E+00
  0.00000000E+00  0.00000000E+00  0.00000000E+00
  0.00000000E+00  0.00000000E+00  0.00000000E+00
  0.00000000E+00  0.00000000E+00  0.00000000E+00
  0.00000000E+00  0.00000000E+00  0.00000000E+00
  0.00000000E+00  0.00000000E+00  0.00000000E+00
  0.00000000E+00  0.00000000E+00  0.00000000E+00
  0.00000000E+00  0.00000000E+00  0.00000000E+00
  0.00000000E+00  0.00000000E+00  0.00000000E+00
  0.00000000E+00  0.00000000E+00  0.00000000E+00
  0.00000000E+00  0.00000000E+00  0.00000000E+00
  0.00000000E+00  0.00000000E+00  0.00000000E+00
  0.00000000E+00  0.00000000E+00  0.00000000E+00
  0.00000000E+00  0.00000000E+00  0.00000000E+00
  0.00000000E+00  0.00000000E+00  0.00000000E+00
  0.00000000E+00  0.00000000E+00  0.00000000E+00
  0.00000000E+00  0.00000000E+00  0.00000000E+00
  0.00000000E+00  0.00000000E+00  0.00000000E+00
  0.00000000E+00  0.00000000E+00  0.00000000E+00
  0.00000000E+00  0.00000000E+00  0.00000000E+00
  0.00000000E+00  0.00000000E+00  0.00000000E+00
  0.00000000E+00  0.00000000E+00  0.00000000E+00
  0.00000000E+00  0.00000000E+00  0.00000000E+00
  0.00000000E+00  0.00000000E+00  0.00000000E+00
  0.00000000E+00  0.00000000E+00  0.00000000E+00
  0.00000000E+00  0.00000000E+00  0.00000000E+00
  0.00000000E+00  0.00000000E+00  0.00000000E+00
  0.00000000E+00  0.00000000E+00  0.00000000E+00
