#BCC aalvarado POSCAR generator         
    12.76000000000000     
     1.0088237691237061   -0.0001497443306812    0.0001537272534673
    -0.0001494658007149    1.0091518031970370    0.0003067491196471
     0.0001536851518264    0.0003073770221251    1.0087070250994739
   Ta   W 
    51    77
Direct
  0.4988794325055685  0.4965428719341057  0.4979681075747084
  0.6252281666512436  0.6270291812454196  0.6235447646101741
  0.6241300552121402  0.6268856885061175  0.3733982730913838
  0.3720801960040623  0.3715093866780482  0.6279945330417980
  0.3744810540770471  0.6270657774034522  0.6269984904457289
  0.7508057304821938  0.7545452812138661  0.7521566955479720
  0.7469997341983043  0.4963616657073513  0.4991542558178981
  0.4995993802487302  0.4975952613916088  0.7502225667706658
  0.4997633299772668  0.7554708021458790  0.7502501046338267
  0.7488337758230639  0.7529287242071167  0.2468194420945796
  0.7477080408316357  0.2475840231192442  0.5003098287215828
  0.5003050577419275  0.2483704704835431  0.4995424816543553
  0.2522383459442403  0.2483313714723488  0.2491558226252787
  0.2538278698239687  0.4981242034424587  0.2516704296957705
  0.2510303690353383  0.5015909375192538  0.4981110564285001
  0.2496397540310877  0.7525820848226211  0.5000197779730745
  0.8723875635990676  0.6270213605172441  0.6237263938616426
  0.6230558546291466  0.6241291469697187  0.8761081585276842
  0.8760704050416500  0.8771248776689983  0.3753946288480164
  0.8751960431357882  0.6267857946824148  0.3734145620362642
  0.6236920277226297  0.8769296245724519  0.3758045408575740
  0.8756280632440659  0.3728468122743996  0.3716424169134733
  0.8750603377780102  0.3717181404846528  0.6272991726984005
  0.6248650716915035  0.3719237191550352  0.8759071741184290
  0.3727595410280586  0.6255258760556135  0.8771899710118959
  0.8782793169760666  0.8788761534719362  0.1253220551676111
  0.8785688513351416  0.6248262652018335  0.1260059496204387
  0.6222662713651613  0.6238585070130347  0.1259657167619352
  0.3758731443875666  0.6266282038441213  0.1235366822205937
  0.3743676405404661  0.8758047881535311  0.1250864540989692
  0.6255814912027668  0.1255802069847078  0.1244784298614717
  0.6248607099102498  0.1222765613150847  0.3723198831396312
  0.3763361470733506  0.1233180222283296  0.1234966149767791
  0.1244005008570613  0.1227577771560145  0.3759157477466733
  0.1238308382369953  0.3738124707652551  0.1228075998847464
  0.1223131589723584  0.3709377455833792  0.3748287465911009
  0.1257683233354907  0.1244860934081264  0.6241387137539670
  0.1258325523282737  0.3701194994584122  0.6274483763433658
  0.1252347651713136  0.6262126575289000  0.1240230064826333
  0.1229833251494801  0.6278568995678511  0.3720121747600100
  0.8743313615316276  0.1258252513953578  0.8763517177725464
  0.6250612327152175  0.1251557502995353  0.8753062299005923
  0.3749635319703492  0.1243533426818707  0.8750115328276705
  0.1261300706462356  0.3733249499235653  0.8766518316110030
  0.1275477048273625  0.6257705393996628  0.8779775474823107
  0.0004314840249460 -0.0017033732660646  0.7506431400472512
  0.0000047426070573  0.7529925681676058  0.7504218293642460
  0.7506455420940759  0.7523750412142354 -0.0022269122377535
  0.0009538423994050  0.5006661985528786  0.5022780556910411
 -0.0010355271618869  0.5019259238473747  0.7514251228030044
  0.7518884229757531  0.4982959098466974  0.0004137569823106
  0.4982920511339191  0.0007428607084891  0.5016659706036860
  0.0016729715183800  0.0015183595720278  0.2490948642275327
  0.0000170948187393  0.4986706370999978  0.2486809957891313
 -0.0015276438939047  0.2464736141790620  0.2472898543474101
 -0.0004223464053023  0.2478671000439828  0.0012276757130264
  0.7518555782835348  0.2510378793776089  0.0016742783038691
  0.4993623490629857  0.2509876057122665  0.0009923351323231
  0.2497636274706728  0.2480641513614854  0.0003723433640925
  0.2517329972494903  0.4979467440092721  0.0012455501358030
  0.6252300101218855  0.3735147145008259  0.3704195475213808
  0.3760673492814356  0.3723096899989102  0.3737546791304052
  0.6249958627465294  0.3722897127405603  0.6279921496214625
  0.3766838858726093  0.6278728461372445  0.3728530655595994
  0.7494635852858350  0.7531559353516490  0.5014369564397880
  0.7505824444598188  0.4991009499952666  0.7514829527754300
  0.4970513634173932  0.7530006869771350  0.4998992067647480
  0.7484837123195844  0.4971537873672023  0.2482649795297148
  0.4989248751061043  0.4974669215782669  0.2506626543656696
  0.4987811685586342  0.7515791463434741  0.2504088861772933
  0.7506530417912096  0.2498825904972274  0.2487198540440175
  0.4996592215097640  0.2512452977060237  0.2505571334905909
  0.2531051361464480  0.2466946258985916  0.4990220356027590
  0.7496264864688260  0.2482978392521698  0.7489073099380112
  0.4998885661310126  0.2480103316754007  0.7487158068847490
  0.2507002118475084  0.2468204341632770  0.7519246534227821
  0.2495294495129375  0.4997560006032473  0.7506431669091720
  0.2506692405457188  0.7525070844279309  0.2516994783571936
  0.2487966542942183  0.7538936718535755  0.7493254692781917
  0.8757630733270384  0.8790184443922340  0.8765796337439087
  0.8742929279372329  0.8773392366158868  0.6223201217067422
  0.8765481405645057  0.6248604465661536  0.8762303932158999
  0.6244456325251833  0.8781482448963676  0.6235659446304157
  0.6236132983835817  0.8792395694823264  0.8750768111152679
  0.8752019345473159  0.3720901859974176  0.8761195766884314
  0.3740439846829479  0.3728088613412015  0.8766311654151767
  0.3753342666767581  0.8766752910190388  0.3742311363266903
  0.3748136656012110  0.8779791083985315  0.6247837554244768
  0.3737885656421268  0.8772783264633340  0.8759797690148269
  0.6231746900345062  0.8782753350475879  0.1246307392149829
  0.8758102114560058  0.3733584444385027  0.1253784250313575
  0.6247872494446647  0.3730915061059948  0.1246890529792605
  0.3771226727094389  0.3741139496111335  0.1232564247092814
  0.8752522963948322  0.1255003475073942  0.1243375522455708
  0.8758209734061919  0.1236193091859208  0.3736260170529199
  0.3748159249043085  0.1220413479585787  0.3748265368626831
  0.8747136397219458  0.1239962088950003  0.6257361850907357
  0.6245879626095705  0.1224711023271695  0.6262796695517068
  0.3740405700774985  0.1231114818646305  0.6262150577927016
  0.1243524664586837  0.1235564069939777  0.1246911764164024
  0.1255825803113214  0.6268149180009198  0.6265025536839580
  0.1258590057404529  0.1248973625720696  0.8759101137154275
  0.1259972689121997  0.8760107750138448  0.1246606106901562
  0.1249305468484207  0.8768125416473593  0.3739045312248728
  0.1262929080365870  0.8774385914898322  0.6246578421754334
  0.1271725044866367  0.8759775327008839  0.8769506687410853
  0.0021910985234395  0.0012476207469596  0.0001769606985349
  0.0004926512093634  0.7532667777472390 -0.0021208118169146
  0.7497827185102818 -0.0001791095441567  0.7484127895488191
  0.7507540164511098 -0.0005310373170816 -0.0006498626810726
 -0.0005679509383010 -0.0009968576650025  0.5009775236732429
  0.0022886463772021  0.7527632250496331  0.5019068963975026
  0.7502706702580622  0.0015704697538808  0.5021269514106034
 -0.0022602788629461  0.4985695346510875 -0.0013615590741468
  0.4999408908885624  0.4969456134670743  0.0014585049122187
  0.5008579355703056  0.7531673264189478 -0.0008629021117457
  0.4996494509308628 -0.0006188102936768  0.7482267946521646
  0.5002718606981356 -0.0012206452490910 -0.0014621866086921
  0.0024826232451357  0.7537378861018861  0.2493083399660160
  0.7513917454478467  0.0021995151025750  0.2489987089446124
  0.4988042269021860 -0.0002851155812062  0.2507503103093973
 -0.0026481469787283  0.2459347985730219  0.4998829104308422
 -0.0010772010484713  0.2473842578251316  0.7525636070247697
  0.2493601745154004  0.7537670170031850 -0.0004945904903428
  0.2491736246310703 -0.0003442523618960  0.2505084562639417
  0.2514102335567238 -0.0023193819431857  0.5002272662163435
  0.2501198881545606 -0.0009411579452776  0.7501309976904786
  0.2478285699314219 -0.0003608076217116 -0.0008540765016078
 
  0.00000000E+00  0.00000000E+00  0.00000000E+00
  0.00000000E+00  0.00000000E+00  0.00000000E+00
  0.00000000E+00  0.00000000E+00  0.00000000E+00
  0.00000000E+00  0.00000000E+00  0.00000000E+00
  0.00000000E+00  0.00000000E+00  0.00000000E+00
  0.00000000E+00  0.00000000E+00  0.00000000E+00
  0.00000000E+00  0.00000000E+00  0.00000000E+00
  0.00000000E+00  0.00000000E+00  0.00000000E+00
  0.00000000E+00  0.00000000E+00  0.00000000E+00
  0.00000000E+00  0.00000000E+00  0.00000000E+00
  0.00000000E+00  0.00000000E+00  0.00000000E+00
  0.00000000E+00  0.00000000E+00  0.00000000E+00
  0.00000000E+00  0.00000000E+00  0.00000000E+00
  0.00000000E+00  0.00000000E+00  0.00000000E+00
  0.00000000E+00  0.00000000E+00  0.00000000E+00
  0.00000000E+00  0.00000000E+00  0.00000000E+00
  0.00000000E+00  0.00000000E+00  0.00000000E+00
  0.00000000E+00  0.00000000E+00  0.00000000E+00
  0.00000000E+00  0.00000000E+00  0.00000000E+00
  0.00000000E+00  0.00000000E+00  0.00000000E+00
  0.00000000E+00  0.00000000E+00  0.00000000E+00
  0.00000000E+00  0.00000000E+00  0.00000000E+00
  0.00000000E+00  0.00000000E+00  0.00000000E+00
  0.00000000E+00  0.00000000E+00  0.00000000E+00
  0.00000000E+00  0.00000000E+00  0.00000000E+00
  0.00000000E+00  0.00000000E+00  0.00000000E+00
  0.00000000E+00  0.00000000E+00  0.00000000E+00
  0.00000000E+00  0.00000000E+00  0.00000000E+00
  0.00000000E+00  0.00000000E+00  0.00000000E+00
  0.00000000E+00  0.00000000E+00  0.00000000E+00
  0.00000000E+00  0.00000000E+00  0.00000000E+00
  0.00000000E+00  0.00000000E+00  0.00000000E+00
  0.00000000E+00  0.00000000E+00  0.00000000E+00
  0.00000000E+00  0.00000000E+00  0.00000000E+00
  0.00000000E+00  0.00000000E+00  0.00000000E+00
  0.00000000E+00  0.00000000E+00  0.00000000E+00
  0.00000000E+00  0.00000000E+00  0.00000000E+00
  0.00000000E+00  0.00000000E+00  0.00000000E+00
  0.00000000E+00  0.00000000E+00  0.00000000E+00
  0.00000000E+00  0.00000000E+00  0.00000000E+00
  0.00000000E+00  0.00000000E+00  0.00000000E+00
  0.00000000E+00  0.00000000E+00  0.00000000E+00
  0.00000000E+00  0.00000000E+00  0.00000000E+00
  0.00000000E+00  0.00000000E+00  0.00000000E+00
  0.00000000E+00  0.00000000E+00  0.00000000E+00
  0.00000000E+00  0.00000000E+00  0.00000000E+00
  0.00000000E+00  0.00000000E+00  0.00000000E+00
  0.00000000E+00  0.00000000E+00  0.00000000E+00
  0.00000000E+00  0.00000000E+00  0.00000000E+00
  0.00000000E+00  0.00000000E+00  0.00000000E+00
  0.00000000E+00  0.00000000E+00  0.00000000E+00
  0.00000000E+00  0.00000000E+00  0.00000000E+00
  0.00000000E+00  0.00000000E+00  0.00000000E+00
  0.00000000E+00  0.00000000E+00  0.00000000E+00
  0.00000000E+00  0.00000000E+00  0.00000000E+00
  0.00000000E+00  0.00000000E+00  0.00000000E+00
  0.00000000E+00  0.00000000E+00  0.00000000E+00
  0.00000000E+00  0.00000000E+00  0.00000000E+00
  0.00000000E+00  0.00000000E+00  0.00000000E+00
  0.00000000E+00  0.00000000E+00  0.00000000E+00
  0.00000000E+00  0.00000000E+00  0.00000000E+00
  0.00000000E+00  0.00000000E+00  0.00000000E+00
  0.00000000E+00  0.00000000E+00  0.00000000E+00
  0.00000000E+00  0.00000000E+00  0.00000000E+00
  0.00000000E+00  0.00000000E+00  0.00000000E+00
  0.00000000E+00  0.00000000E+00  0.00000000E+00
  0.00000000E+00  0.00000000E+00  0.00000000E+00
  0.00000000E+00  0.00000000E+00  0.00000000E+00
  0.00000000E+00  0.00000000E+00  0.00000000E+00
  0.00000000E+00  0.00000000E+00  0.00000000E+00
  0.00000000E+00  0.00000000E+00  0.00000000E+00
  0.00000000E+00  0.00000000E+00  0.00000000E+00
  0.00000000E+00  0.00000000E+00  0.00000000E+00
  0.00000000E+00  0.00000000E+00  0.00000000E+00
  0.00000000E+00  0.00000000E+00  0.00000000E+00
  0.00000000E+00  0.00000000E+00  0.00000000E+00
  0.00000000E+00  0.00000000E+00  0.00000000E+00
  0.00000000E+00  0.00000000E+00  0.00000000E+00
  0.00000000E+00  0.00000000E+00  0.00000000E+00
  0.00000000E+00  0.00000000E+00  0.00000000E+00
  0.00000000E+00  0.00000000E+00  0.00000000E+00
  0.00000000E+00  0.00000000E+00  0.00000000E+00
  0.00000000E+00  0.00000000E+00  0.00000000E+00
  0.00000000E+00  0.00000000E+00  0.00000000E+00
  0.00000000E+00  0.00000000E+00  0.00000000E+00
  0.00000000E+00  0.00000000E+00  0.00000000E+00
  0.00000000E+00  0.00000000E+00  0.00000000E+00
  0.00000000E+00  0.00000000E+00  0.00000000E+00
  0.00000000E+00  0.00000000E+00  0.00000000E+00
  0.00000000E+00  0.00000000E+00  0.00000000E+00
  0.00000000E+00  0.00000000E+00  0.00000000E+00
  0.00000000E+00  0.00000000E+00  0.00000000E+00
  0.00000000E+00  0.00000000E+00  0.00000000E+00
  0.00000000E+00  0.00000000E+00  0.00000000E+00
  0.00000000E+00  0.00000000E+00  0.00000000E+00
  0.00000000E+00  0.00000000E+00  0.00000000E+00
  0.00000000E+00  0.00000000E+00  0.00000000E+00
  0.00000000E+00  0.00000000E+00  0.00000000E+00
  0.00000000E+00  0.00000000E+00  0.00000000E+00
  0.00000000E+00  0.00000000E+00  0.00000000E+00
  0.00000000E+00  0.00000000E+00  0.00000000E+00
  0.00000000E+00  0.00000000E+00  0.00000000E+00
  0.00000000E+00  0.00000000E+00  0.00000000E+00
  0.00000000E+00  0.00000000E+00  0.00000000E+00
  0.00000000E+00  0.00000000E+00  0.00000000E+00
  0.00000000E+00  0.00000000E+00  0.00000000E+00
  0.00000000E+00  0.00000000E+00  0.00000000E+00
  0.00000000E+00  0.00000000E+00  0.00000000E+00
  0.00000000E+00  0.00000000E+00  0.00000000E+00
  0.00000000E+00  0.00000000E+00  0.00000000E+00
  0.00000000E+00  0.00000000E+00  0.00000000E+00
  0.00000000E+00  0.00000000E+00  0.00000000E+00
  0.00000000E+00  0.00000000E+00  0.00000000E+00
  0.00000000E+00  0.00000000E+00  0.00000000E+00
  0.00000000E+00  0.00000000E+00  0.00000000E+00
  0.00000000E+00  0.00000000E+00  0.00000000E+00
  0.00000000E+00  0.00000000E+00  0.00000000E+00
  0.00000000E+00  0.00000000E+00  0.00000000E+00
  0.00000000E+00  0.00000000E+00  0.00000000E+00
  0.00000000E+00  0.00000000E+00  0.00000000E+00
  0.00000000E+00  0.00000000E+00  0.00000000E+00
  0.00000000E+00  0.00000000E+00  0.00000000E+00
  0.00000000E+00  0.00000000E+00  0.00000000E+00
  0.00000000E+00  0.00000000E+00  0.00000000E+00
  0.00000000E+00  0.00000000E+00  0.00000000E+00
  0.00000000E+00  0.00000000E+00  0.00000000E+00
  0.00000000E+00  0.00000000E+00  0.00000000E+00
  0.00000000E+00  0.00000000E+00  0.00000000E+00
