POSCAR file written by OVITO Basic 3.3.2
    1.000000000000000     
    12.7764704833158245   -0.0003978192235114    0.0004970649131955
    -0.0003978754282815   12.7797970998250729   -0.0025826332948298
     0.0004970412057305   -0.0025833999069194   12.7742248035780044
   Ta   W 
    26   102
Direct
  0.1252205248186800  0.1251251328806230  0.1249374676095327
  0.3759467943138253  0.1257691186955239  0.1245876159611650
  0.6250763553845722  0.1249273708858685  0.1257027529804338
  0.2513656462012315  0.4994828015704115  0.2491565850358075
  0.8737687277281611  0.6245517882759889  0.1262567607474710
  0.2500097009407889 -0.0019011065882274  0.2523685247925975
  0.6254532344483192  0.1251822368637383  0.3741653219661740
  0.8736416763601352  0.1260812675880832  0.3741649804483278
  0.1241767817547781  0.6249133974838830  0.3759471432153659
  0.4999061400188197  0.7496580492363690  0.4994358166950436
  0.8748245747815173  0.6247132870599182  0.3748210130734332
  0.2498643578597915  0.0002527650744663  0.5002624759782200
  0.0008419736785676 -0.0004748502537789  0.5009909725983034
  0.4998734269607190  0.2503195921274952  0.7495614754819617
  0.7500846071242132  0.2480911929591440  0.7497044327730202
  0.2494679217634494  0.5003074137626510  0.7501019765704220
  0.6250964957174310  0.3769764156370503  0.6224920207509821
  0.7511776606901907  0.7512850829265081  0.7490785326005558
  0.2481210129603949 -0.0003740047553102  0.7481618171523424
  0.7505972214099231 -0.0004227228992075  0.7502694417032744
  0.3747154028793317  0.1245093132124468  0.8768524838518630
  0.0000288776050275  0.2502162410786336 -0.0002546528223799
  0.8752248178341165  0.3764790565875826  0.8749347104203247
  0.6239290800004696  0.6244441303997578  0.8761982558503183
  0.0011562421307385  0.7509064302417596 -0.0010479445008988
  0.3756244968155023  0.8736887454484111  0.8763361018674944
  0.2500079386576306  0.2517053916542596  0.2519193214494497
  0.4995413901645271  0.2528521093749412  0.2509649695139056
  0.7505731447663636  0.2523138859485043  0.2492539620419099
 -0.0000806555962336  0.2512152411909928  0.2502332391049047
  0.8743094729769059  0.1243193375950057  0.1258182729936798
  0.1253761039761037  0.3749585028742395  0.1252198698379288
  0.4998280037705737  0.5006243960682369  0.2498571180121256
  0.3762123790091841  0.3753005652825653  0.1250197743656840
  0.7479297199312184  0.4991789911178438  0.2502445554075446
  0.6248310896770566  0.3753573132495929  0.1256088727394058
  0.0007435699401915  0.4980101092309813  0.2498450528565614
  0.8738996080318825  0.3760529457343150  0.1255616972960321
  0.2511417019897432  0.7498100640948565  0.2494267818274599
  0.1253924923627866  0.6249595502259200  0.1248410730219452
  0.5000939547178466  0.7491730354071124  0.2504746952993566
  0.3760818207782249  0.6250954288985514  0.1245640144940784
  0.7481081475695138  0.7508980096451869  0.2502916623048815
  0.6246797879479865  0.6248893031508701  0.1249612376026493
  0.0004502428809145  0.7516171363675991  0.2491544115199253
  0.1247353758372729  0.8748924920653597  0.1249089985158962
  0.4996500467311465 -0.0025772152113082  0.2510412714193935
  0.3762084663285079  0.8733070571385386  0.1247910936979036
  0.7506031735733958 -0.0021515561665639  0.2490227416460833
  0.6252961566006238  0.8746715255096079  0.1256121470522643
 -0.0001801759801315 -0.0010374696861847  0.2501645878475485
  0.8738837620913535  0.8750458474497091  0.1256615122330903
  0.2496938203235450  0.2501288244158548  0.5000869774692878
  0.1238556490274859  0.1273325790382309  0.3745406311959948
  0.4980157291712076  0.2504951673714109  0.4997336415336190
  0.3766930976148554  0.1266816631473511  0.3750960210483991
  0.7508807889254623  0.2512778684678909  0.4999658784027701
  0.0011960775406896  0.2507513954076960  0.5006250666927603
  0.2505158652002512  0.4990363608111122  0.5007831779691321
  0.1246552609468963  0.3750237619599661  0.3758132256020797
  0.4994157824774946  0.5012751688614925  0.4986190995197209
  0.3756673874218997  0.3748853000799094  0.3751370545021390
  0.7499532218177284  0.5004731356788549  0.4993249387588227
  0.6247839732456268  0.3753451416010862  0.3741641773565323
 -0.0002471584841156  0.4986548464210777  0.5016591627013343
  0.8748944658036991  0.3751802625864959  0.3746628033786440
  0.2511224953351615  0.7501471610533440  0.5007366475936292
  0.3750930580501630  0.6244964337417420  0.3746363110608669
  0.7488462972765366  0.7500825986194964  0.5005132235633751
  0.6255932899387064  0.6245008352743132  0.3739396318312442
  0.0000063267097114  0.7507960022878490  0.5016986803981285
  0.1242524186104541  0.8723039553860195  0.3744827766160070
  0.4992913817566436 -0.0010970561557777  0.5004085867748356
  0.3760921146929473  0.8737871222386064  0.3743339807993109
  0.7502109454696853 -0.0013774576390872  0.5011782852826102
  0.6254771760043003  0.8754108188409290  0.3737461105441718
  0.8738714718477815  0.8744007995440018  0.3739439254578530
  0.2492693458429702  0.2510983484450221  0.7487176328642409
  0.1243781855877197  0.1275495199058210  0.6257264398088528
  0.3751042986361974  0.1260142704533864  0.6244998640536601
  0.6244767314586278  0.1246743823882220  0.6223182526628557
  0.0006467048079591  0.2498113420912199  0.7490901427993885
  0.8761485115990792  0.1257342991547375  0.6238426502715638
  0.1244369172777273  0.3748470548067187  0.6240298283155330
  0.4977597223557149  0.5001396178146227  0.7500117537647863
  0.3746032438289896  0.3755902937692661  0.6231912659327931
  0.7510666193175564  0.5013055263628928  0.7492285707858468
  0.0015293188908480  0.5009617568881056  0.7489278632762815
  0.8760056420146923  0.3761787568285731  0.6239316438140634
  0.2490168097952558  0.7485470138628836  0.7497399889357690
  0.1243060852973308  0.6248806268213054  0.6246362516320529
  0.5000258442341944  0.7497082694045866  0.7485050438558202
  0.3745502415921532  0.6246143929902248  0.6249727102489631
  0.6249952530604959  0.6239455856772951  0.6250019653733443
  0.0001340226090273  0.7496945655688620  0.7501915987046947
  0.8758434563228917  0.6243969479161909  0.6237584227206159
  0.1241462229957328  0.8725616807526947  0.6259325083815732
  0.5013283369689910  0.0001004033772628  0.7487257998762158
  0.3756572055770654  0.8736582340330927  0.6257415104228047
  0.6247591686180620  0.8751924527497078  0.6237910299505609
 -0.0003246481252625 -0.0002196943206314  0.7499207627374853
  0.8758154056110161  0.8738611458055510  0.6241616607523357
  0.2490273748601806  0.2528455774200549 -0.0006205181612728
  0.1249082536442243  0.1251335007338392  0.8749674843185841
  0.5006723983805492  0.2527446554472447 -0.0004052379180468
  0.7502938014419742  0.2499758113462956  0.0001887395238870
  0.6244593003328849  0.1240489617952697  0.8774658997837667
  0.8758388299411283  0.1246933565707549  0.8756423314565980
  0.2506455093942110  0.5005511291779930 -0.0003942448752301
  0.1248832663994662  0.3756879123772427  0.8745442493977851
  0.4991309524588787  0.5000555439308878  0.0012745877420230
  0.3745412813066858  0.3753459910194569  0.8765016376357877
  0.7486773909017992  0.4996262443150309  0.0012901752777444
  0.6251451481180660  0.3769170385943179  0.8765167330170692
  0.0014473726703294  0.5004829718571648 -0.0005888714626321
  0.2493904358092575  0.7483835700194162  0.0006053727767515
  0.1254985486850929  0.6249921956360741  0.8745011712035170
  0.4996035747917141  0.7489897745367150  0.0021243108805668
  0.3755721583390347  0.6253937196756827  0.8759265006062169
  0.7499701937453630  0.7512839051864462  0.0002577744860129
  0.8748770071096522  0.6239040227856958  0.8749915364535203
  0.2484504142435295 -0.0019152998757136  0.0002153561913379
  0.1251842159886018  0.8743596375288025  0.8750901496240096
  0.5022401367596568 -0.0020400347437026  0.0005123539006386
  0.7509649933724830 -0.0006771111610066 -0.0006429150486021
  0.6239202307868924  0.8741322743208269  0.8769422508697501
 -0.0013132676865514 -0.0007645644859557 -0.0009245206762933
  0.8759504243897618  0.8758195896931594  0.8759434980983775
 
  0.00000000E+00  0.00000000E+00  0.00000000E+00
  0.00000000E+00  0.00000000E+00  0.00000000E+00
  0.00000000E+00  0.00000000E+00  0.00000000E+00
  0.00000000E+00  0.00000000E+00  0.00000000E+00
  0.00000000E+00  0.00000000E+00  0.00000000E+00
  0.00000000E+00  0.00000000E+00  0.00000000E+00
  0.00000000E+00  0.00000000E+00  0.00000000E+00
  0.00000000E+00  0.00000000E+00  0.00000000E+00
  0.00000000E+00  0.00000000E+00  0.00000000E+00
  0.00000000E+00  0.00000000E+00  0.00000000E+00
  0.00000000E+00  0.00000000E+00  0.00000000E+00
  0.00000000E+00  0.00000000E+00  0.00000000E+00
  0.00000000E+00  0.00000000E+00  0.00000000E+00
  0.00000000E+00  0.00000000E+00  0.00000000E+00
  0.00000000E+00  0.00000000E+00  0.00000000E+00
  0.00000000E+00  0.00000000E+00  0.00000000E+00
  0.00000000E+00  0.00000000E+00  0.00000000E+00
  0.00000000E+00  0.00000000E+00  0.00000000E+00
  0.00000000E+00  0.00000000E+00  0.00000000E+00
  0.00000000E+00  0.00000000E+00  0.00000000E+00
  0.00000000E+00  0.00000000E+00  0.00000000E+00
  0.00000000E+00  0.00000000E+00  0.00000000E+00
  0.00000000E+00  0.00000000E+00  0.00000000E+00
  0.00000000E+00  0.00000000E+00  0.00000000E+00
  0.00000000E+00  0.00000000E+00  0.00000000E+00
  0.00000000E+00  0.00000000E+00  0.00000000E+00
  0.00000000E+00  0.00000000E+00  0.00000000E+00
  0.00000000E+00  0.00000000E+00  0.00000000E+00
  0.00000000E+00  0.00000000E+00  0.00000000E+00
  0.00000000E+00  0.00000000E+00  0.00000000E+00
  0.00000000E+00  0.00000000E+00  0.00000000E+00
  0.00000000E+00  0.00000000E+00  0.00000000E+00
  0.00000000E+00  0.00000000E+00  0.00000000E+00
  0.00000000E+00  0.00000000E+00  0.00000000E+00
  0.00000000E+00  0.00000000E+00  0.00000000E+00
  0.00000000E+00  0.00000000E+00  0.00000000E+00
  0.00000000E+00  0.00000000E+00  0.00000000E+00
  0.00000000E+00  0.00000000E+00  0.00000000E+00
  0.00000000E+00  0.00000000E+00  0.00000000E+00
  0.00000000E+00  0.00000000E+00  0.00000000E+00
  0.00000000E+00  0.00000000E+00  0.00000000E+00
  0.00000000E+00  0.00000000E+00  0.00000000E+00
  0.00000000E+00  0.00000000E+00  0.00000000E+00
  0.00000000E+00  0.00000000E+00  0.00000000E+00
  0.00000000E+00  0.00000000E+00  0.00000000E+00
  0.00000000E+00  0.00000000E+00  0.00000000E+00
  0.00000000E+00  0.00000000E+00  0.00000000E+00
  0.00000000E+00  0.00000000E+00  0.00000000E+00
  0.00000000E+00  0.00000000E+00  0.00000000E+00
  0.00000000E+00  0.00000000E+00  0.00000000E+00
  0.00000000E+00  0.00000000E+00  0.00000000E+00
  0.00000000E+00  0.00000000E+00  0.00000000E+00
  0.00000000E+00  0.00000000E+00  0.00000000E+00
  0.00000000E+00  0.00000000E+00  0.00000000E+00
  0.00000000E+00  0.00000000E+00  0.00000000E+00
  0.00000000E+00  0.00000000E+00  0.00000000E+00
  0.00000000E+00  0.00000000E+00  0.00000000E+00
  0.00000000E+00  0.00000000E+00  0.00000000E+00
  0.00000000E+00  0.00000000E+00  0.00000000E+00
  0.00000000E+00  0.00000000E+00  0.00000000E+00
  0.00000000E+00  0.00000000E+00  0.00000000E+00
  0.00000000E+00  0.00000000E+00  0.00000000E+00
  0.00000000E+00  0.00000000E+00  0.00000000E+00
  0.00000000E+00  0.00000000E+00  0.00000000E+00
  0.00000000E+00  0.00000000E+00  0.00000000E+00
  0.00000000E+00  0.00000000E+00  0.00000000E+00
  0.00000000E+00  0.00000000E+00  0.00000000E+00
  0.00000000E+00  0.00000000E+00  0.00000000E+00
  0.00000000E+00  0.00000000E+00  0.00000000E+00
  0.00000000E+00  0.00000000E+00  0.00000000E+00
  0.00000000E+00  0.00000000E+00  0.00000000E+00
  0.00000000E+00  0.00000000E+00  0.00000000E+00
  0.00000000E+00  0.00000000E+00  0.00000000E+00
  0.00000000E+00  0.00000000E+00  0.00000000E+00
  0.00000000E+00  0.00000000E+00  0.00000000E+00
  0.00000000E+00  0.00000000E+00  0.00000000E+00
  0.00000000E+00  0.00000000E+00  0.00000000E+00
  0.00000000E+00  0.00000000E+00  0.00000000E+00
  0.00000000E+00  0.00000000E+00  0.00000000E+00
  0.00000000E+00  0.00000000E+00  0.00000000E+00
  0.00000000E+00  0.00000000E+00  0.00000000E+00
  0.00000000E+00  0.00000000E+00  0.00000000E+00
  0.00000000E+00  0.00000000E+00  0.00000000E+00
  0.00000000E+00  0.00000000E+00  0.00000000E+00
  0.00000000E+00  0.00000000E+00  0.00000000E+00
  0.00000000E+00  0.00000000E+00  0.00000000E+00
  0.00000000E+00  0.00000000E+00  0.00000000E+00
  0.00000000E+00  0.00000000E+00  0.00000000E+00
  0.00000000E+00  0.00000000E+00  0.00000000E+00
  0.00000000E+00  0.00000000E+00  0.00000000E+00
  0.00000000E+00  0.00000000E+00  0.00000000E+00
  0.00000000E+00  0.00000000E+00  0.00000000E+00
  0.00000000E+00  0.00000000E+00  0.00000000E+00
  0.00000000E+00  0.00000000E+00  0.00000000E+00
  0.00000000E+00  0.00000000E+00  0.00000000E+00
  0.00000000E+00  0.00000000E+00  0.00000000E+00
  0.00000000E+00  0.00000000E+00  0.00000000E+00
  0.00000000E+00  0.00000000E+00  0.00000000E+00
  0.00000000E+00  0.00000000E+00  0.00000000E+00
  0.00000000E+00  0.00000000E+00  0.00000000E+00
  0.00000000E+00  0.00000000E+00  0.00000000E+00
  0.00000000E+00  0.00000000E+00  0.00000000E+00
  0.00000000E+00  0.00000000E+00  0.00000000E+00
  0.00000000E+00  0.00000000E+00  0.00000000E+00
  0.00000000E+00  0.00000000E+00  0.00000000E+00
  0.00000000E+00  0.00000000E+00  0.00000000E+00
  0.00000000E+00  0.00000000E+00  0.00000000E+00
  0.00000000E+00  0.00000000E+00  0.00000000E+00
  0.00000000E+00  0.00000000E+00  0.00000000E+00
  0.00000000E+00  0.00000000E+00  0.00000000E+00
  0.00000000E+00  0.00000000E+00  0.00000000E+00
  0.00000000E+00  0.00000000E+00  0.00000000E+00
  0.00000000E+00  0.00000000E+00  0.00000000E+00
  0.00000000E+00  0.00000000E+00  0.00000000E+00
  0.00000000E+00  0.00000000E+00  0.00000000E+00
  0.00000000E+00  0.00000000E+00  0.00000000E+00
  0.00000000E+00  0.00000000E+00  0.00000000E+00
  0.00000000E+00  0.00000000E+00  0.00000000E+00
  0.00000000E+00  0.00000000E+00  0.00000000E+00
  0.00000000E+00  0.00000000E+00  0.00000000E+00
  0.00000000E+00  0.00000000E+00  0.00000000E+00
  0.00000000E+00  0.00000000E+00  0.00000000E+00
  0.00000000E+00  0.00000000E+00  0.00000000E+00
  0.00000000E+00  0.00000000E+00  0.00000000E+00
  0.00000000E+00  0.00000000E+00  0.00000000E+00
  0.00000000E+00  0.00000000E+00  0.00000000E+00
  0.00000000E+00  0.00000000E+00  0.00000000E+00
  0.00000000E+00  0.00000000E+00  0.00000000E+00
