#generated using str2pos                
    1.000000000000000     
    12.7971589088285445   -0.0014663860306850   -0.0013821380263273
    -0.0014663787189075   12.8023368312105852   -0.0006366172809724
    -0.0013824403746785   -0.0006363277588559   12.7970811643572908
   Ta   W 
    32    96
Direct
  0.2499691336717894  0.2498107300452191  0.2503991803186490
  0.8746857918074226  0.3749032895862269  0.1250231577920649
  0.1248765375220048  0.6254290003676192  0.1249809513135262
  0.3747887487599945  0.6247510057349812  0.1251662055857466
  0.6250948826261384  0.6249121791529860  0.1247205697146563
  0.8751462080497148  0.6247177377316814  0.1247891948878006
  0.5014612861990571  0.0012628104240521  0.2493353615605628
  0.7504716425365696  0.0006298249034621  0.2500618586494822
  0.2499278231964034  0.2497697689907117  0.4997393379802800
 -0.0000997178795058  0.2494738171063727  0.4996071887399700
  0.7498685419045090  0.5000580020542847  0.4998798033220025
  0.3749762351642856  0.6248605342177063  0.3750141740522521
  0.7506199306209915  0.7494764890674747  0.4997488479390077
 -0.0017202883061155  0.7511541277622720  0.4990469687319330
  0.3742115394985042  0.8739864143255591  0.3761366667989357
 -0.0002659424737607  0.0004956921811533  0.4995204330841023
  0.2501398679748228  0.2495739881593337  0.7497601290575497
  0.6253857251771675  0.1253185194354378  0.6246672712148924
  0.1258292351055372  0.6240603343317264  0.6256554040193060
  0.3746915850785538  0.6249639488808454  0.6250246778619961
  0.2491848792187899  0.0012240657587111  0.7510237521362916
  0.3762200160044116  0.8739807511004259  0.6239428406932862
  0.2505516394296525  0.2494655704114426  0.0002920787346916
  0.4999149950929730  0.2493592531229506  0.0002231495444195
  0.8745461048404767  0.1249242882211244  0.8751037681456988
  0.8748958663694517  0.3747022522983267  0.8751531559760375
  0.3753836601417153  0.6246666038487513  0.8748793828006661
  0.6248618389496899  0.6250259275770776  0.8752922233962387
  0.8747687663777700  0.6250996307606680  0.8752244212542776
  0.2501484246022191  0.0004306607412616 -0.0000854945463104
  0.4997808434501875  0.0009763012115736  0.0003996232303519
  0.8747766634569334  0.8754176187518384  0.8751667574495029
  0.1222420343690669  0.1239781744547893  0.1259620354871226
  0.5000973003154608  0.2498938243749143  0.2503336697668538
  0.3748853153195199  0.1253162346289023  0.1272038231777040
  0.7496191202160553  0.2487830677765571  0.2508540189254796
  0.6272013475981838  0.1267438292285490  0.1253876280906875
  0.0002348015346526  0.2491066835055917  0.2509753050696539
  0.8756606335425273  0.1259648748733163  0.1243058024193208
  0.2494134131565331  0.4976589708016240  0.2507801526056454
  0.1234096619912303  0.3763605389572090  0.1249699654071506
  0.5006175339283095  0.4974212738698793  0.2512122363976529
  0.3758117293441693  0.3770660926730881  0.1260410819319780
  0.7493822991281396  0.4988245033084941  0.2528597379429645
  0.6259383053843606  0.3757934627345191  0.1258845538871808
  0.0005299835930516  0.4991978251874175  0.2522077104859234
  0.2481843966593658  0.7512590227635841  0.2496316168137193
  0.5014813156342546  0.7512763229935379  0.2499621515841326
  0.7505903474451681  0.7519904476936956  0.2517953704512382
 -0.0001909314431121  0.7516797086224118  0.2512638197153306
  0.2491510009831182  0.0010691379008170  0.2492354821761023
  0.1238962835112515  0.8742256989832666  0.1254389204904947
  0.3739886806657908  0.8727887751440061  0.1261154075493681
  0.6262058417335280  0.8731876279425235  0.1241854242890314
 -0.0006772977343919  0.0004438760709952  0.2502713815781321
  0.8758446829027305  0.8747813616288007  0.1239173892511286
  0.1246460591929654  0.1237060107904158  0.3731746918953940
  0.4994840827317336  0.2504098735361618  0.4993665588981775
  0.3760405345382198  0.1243823579438267  0.3761067851231715
  0.7504055929936662  0.2510876611925740  0.4991837958587949
  0.6254504892136279  0.1271267734041254  0.3770898230369497
  0.8741477900684167  0.1260709889870911  0.3740379199705505
  0.2495761595206115  0.4971994585182620  0.4994244056827666
  0.1243477724412103  0.3768001660169466  0.3744351877165986
  0.5018668913894884  0.4976989387849002  0.4998500498252023
  0.3766279864277067  0.3763007696008437  0.3753295612608180
  0.6244880525587303  0.3743273279410862  0.3747379817019125
 -0.0011892030159816  0.4989642917248851  0.4994865463811641
  0.8745734860983734  0.3748991514097660  0.3737002582668334
  0.2474115144181754  0.7502416538901359  0.4991936875706060
  0.1256454248755590  0.6245032888740065  0.3743034177027284
  0.5036886064146604  0.7495767587357642  0.5000434601633570
  0.6238454110481366  0.6242974707353037  0.3736462111729560
  0.8755859120280131  0.6241480909383886  0.3729765683742299
  0.2484947253511935  0.0017181912966801  0.5002043145421874
  0.1261320982162100  0.8749613172413302  0.3730427072182557
  0.5008467170095997  0.0013803791539024  0.4991340194775252
  0.7509510821555068 -0.0005632056528196  0.4989698411511185
  0.6244078567362243  0.8746172821353687  0.3757266781592509
  0.8750706165994971  0.8755134971198728  0.3733508378116427
  0.1238272113850272  0.1245137870312198  0.6253825862574958
  0.4996434032179909  0.2505492891308946  0.7502879985320892
  0.3781748097989457  0.1242868200735120  0.6237664514749076
  0.7491884285575078  0.2502975893623656  0.7490855873908638
  0.0008359955661482  0.2500667955232023  0.7483197446143017
  0.8724987657909654  0.1253589518065146  0.6263533551953219
  0.2494902630226855  0.4974397863633137  0.7506015358541062
  0.1243484817057555  0.3773147667100129  0.6255011222640293
  0.5007380883055851  0.4975247134662241  0.7488347063697265
  0.3767709722187899  0.3762016849480969  0.6246571329471520
  0.7493563544075881  0.4990190201619836  0.7469315362137519
  0.6246604387069054  0.3735580271436984  0.6250114726510826
  0.0006390140351087  0.4991736542591270  0.7490787637234265
  0.8746159840427307  0.3748290734807406  0.6260247499476188
  0.2487194505891147  0.7514544729869059  0.7518080725572662
  0.5017271057215912  0.7510362140604925  0.7499613915299254
  0.7494555266087616  0.7508922020958987  0.7474183249081154
  0.6240176887281952  0.6247162284791813  0.6262992391815396
  0.0002114171199024  0.7505694983000671  0.7491507511208055
  0.8760860382406939  0.6241943802511124  0.6266614113859956
  0.1256342341930008  0.8737387326441413  0.6256429002508305
  0.5001641691010368  0.0004259757728591  0.7511287757528172
  0.7495180674747898 -0.0001785774582226  0.7492703352193321
  0.6245181716078007  0.8763023857438903  0.6258635730061406
  0.0008338786246927  0.0002863759320579  0.7485570316976272
  0.8738794445501532  0.8759672867110218  0.6271553828467619
  0.1212526038217368  0.1250762811881564  0.8755925422178032
  0.3766584199517265  0.1253190880365301  0.8733225117565421
  0.7477784794244339  0.2488083756925907  0.0009986060151182
  0.6271518603264626  0.1252018900511087  0.8728484737369101
  0.0016137559862894  0.2489176358671487  0.0009447025272801
  0.2494896519733593  0.4979415444465760 -0.0005344331679572
  0.1236650464767777  0.3764709779644771  0.8749415758375545
  0.4994640390942984  0.4965165630661181  0.0000207452449654
  0.3756918974437866  0.3772947291625623  0.8741175594629460
  0.7484882967120624  0.4982102190910723 -0.0000229052637974
  0.6255841669927932  0.3758047497903381  0.8741522230678768
  0.0023706702778976  0.4993409153525847 -0.0006431397641541
  0.2491778932024044  0.7523964833532886 -0.0001903288845280
  0.1251379503261496  0.6250027606178298  0.8750974478300997
  0.4998239221897355  0.7532869177302096 -0.0001449591254381
  0.7495055782706955  0.7527494461659959  0.0007263770000305
  0.0014295930709602  0.7518613756176278  0.0002846231418245
  0.1230400180115039  0.8736312267476718  0.8758164452126528
  0.3756240571012247  0.8725734607113681  0.8739426216757311
  0.7489513637384529  0.0006007614692729  0.0017343528383934
  0.6261006823117073  0.8741593461576970  0.8744006954312454
  0.0012907270152101  0.0002351480388997  0.0016372944198146
 
  0.00000000E+00  0.00000000E+00  0.00000000E+00
  0.00000000E+00  0.00000000E+00  0.00000000E+00
  0.00000000E+00  0.00000000E+00  0.00000000E+00
  0.00000000E+00  0.00000000E+00  0.00000000E+00
  0.00000000E+00  0.00000000E+00  0.00000000E+00
  0.00000000E+00  0.00000000E+00  0.00000000E+00
  0.00000000E+00  0.00000000E+00  0.00000000E+00
  0.00000000E+00  0.00000000E+00  0.00000000E+00
  0.00000000E+00  0.00000000E+00  0.00000000E+00
  0.00000000E+00  0.00000000E+00  0.00000000E+00
  0.00000000E+00  0.00000000E+00  0.00000000E+00
  0.00000000E+00  0.00000000E+00  0.00000000E+00
  0.00000000E+00  0.00000000E+00  0.00000000E+00
  0.00000000E+00  0.00000000E+00  0.00000000E+00
  0.00000000E+00  0.00000000E+00  0.00000000E+00
  0.00000000E+00  0.00000000E+00  0.00000000E+00
  0.00000000E+00  0.00000000E+00  0.00000000E+00
  0.00000000E+00  0.00000000E+00  0.00000000E+00
  0.00000000E+00  0.00000000E+00  0.00000000E+00
  0.00000000E+00  0.00000000E+00  0.00000000E+00
  0.00000000E+00  0.00000000E+00  0.00000000E+00
  0.00000000E+00  0.00000000E+00  0.00000000E+00
  0.00000000E+00  0.00000000E+00  0.00000000E+00
  0.00000000E+00  0.00000000E+00  0.00000000E+00
  0.00000000E+00  0.00000000E+00  0.00000000E+00
  0.00000000E+00  0.00000000E+00  0.00000000E+00
  0.00000000E+00  0.00000000E+00  0.00000000E+00
  0.00000000E+00  0.00000000E+00  0.00000000E+00
  0.00000000E+00  0.00000000E+00  0.00000000E+00
  0.00000000E+00  0.00000000E+00  0.00000000E+00
  0.00000000E+00  0.00000000E+00  0.00000000E+00
  0.00000000E+00  0.00000000E+00  0.00000000E+00
  0.00000000E+00  0.00000000E+00  0.00000000E+00
  0.00000000E+00  0.00000000E+00  0.00000000E+00
  0.00000000E+00  0.00000000E+00  0.00000000E+00
  0.00000000E+00  0.00000000E+00  0.00000000E+00
  0.00000000E+00  0.00000000E+00  0.00000000E+00
  0.00000000E+00  0.00000000E+00  0.00000000E+00
  0.00000000E+00  0.00000000E+00  0.00000000E+00
  0.00000000E+00  0.00000000E+00  0.00000000E+00
  0.00000000E+00  0.00000000E+00  0.00000000E+00
  0.00000000E+00  0.00000000E+00  0.00000000E+00
  0.00000000E+00  0.00000000E+00  0.00000000E+00
  0.00000000E+00  0.00000000E+00  0.00000000E+00
  0.00000000E+00  0.00000000E+00  0.00000000E+00
  0.00000000E+00  0.00000000E+00  0.00000000E+00
  0.00000000E+00  0.00000000E+00  0.00000000E+00
  0.00000000E+00  0.00000000E+00  0.00000000E+00
  0.00000000E+00  0.00000000E+00  0.00000000E+00
  0.00000000E+00  0.00000000E+00  0.00000000E+00
  0.00000000E+00  0.00000000E+00  0.00000000E+00
  0.00000000E+00  0.00000000E+00  0.00000000E+00
  0.00000000E+00  0.00000000E+00  0.00000000E+00
  0.00000000E+00  0.00000000E+00  0.00000000E+00
  0.00000000E+00  0.00000000E+00  0.00000000E+00
  0.00000000E+00  0.00000000E+00  0.00000000E+00
  0.00000000E+00  0.00000000E+00  0.00000000E+00
  0.00000000E+00  0.00000000E+00  0.00000000E+00
  0.00000000E+00  0.00000000E+00  0.00000000E+00
  0.00000000E+00  0.00000000E+00  0.00000000E+00
  0.00000000E+00  0.00000000E+00  0.00000000E+00
  0.00000000E+00  0.00000000E+00  0.00000000E+00
  0.00000000E+00  0.00000000E+00  0.00000000E+00
  0.00000000E+00  0.00000000E+00  0.00000000E+00
  0.00000000E+00  0.00000000E+00  0.00000000E+00
  0.00000000E+00  0.00000000E+00  0.00000000E+00
  0.00000000E+00  0.00000000E+00  0.00000000E+00
  0.00000000E+00  0.00000000E+00  0.00000000E+00
  0.00000000E+00  0.00000000E+00  0.00000000E+00
  0.00000000E+00  0.00000000E+00  0.00000000E+00
  0.00000000E+00  0.00000000E+00  0.00000000E+00
  0.00000000E+00  0.00000000E+00  0.00000000E+00
  0.00000000E+00  0.00000000E+00  0.00000000E+00
  0.00000000E+00  0.00000000E+00  0.00000000E+00
  0.00000000E+00  0.00000000E+00  0.00000000E+00
  0.00000000E+00  0.00000000E+00  0.00000000E+00
  0.00000000E+00  0.00000000E+00  0.00000000E+00
  0.00000000E+00  0.00000000E+00  0.00000000E+00
  0.00000000E+00  0.00000000E+00  0.00000000E+00
  0.00000000E+00  0.00000000E+00  0.00000000E+00
  0.00000000E+00  0.00000000E+00  0.00000000E+00
  0.00000000E+00  0.00000000E+00  0.00000000E+00
  0.00000000E+00  0.00000000E+00  0.00000000E+00
  0.00000000E+00  0.00000000E+00  0.00000000E+00
  0.00000000E+00  0.00000000E+00  0.00000000E+00
  0.00000000E+00  0.00000000E+00  0.00000000E+00
  0.00000000E+00  0.00000000E+00  0.00000000E+00
  0.00000000E+00  0.00000000E+00  0.00000000E+00
  0.00000000E+00  0.00000000E+00  0.00000000E+00
  0.00000000E+00  0.00000000E+00  0.00000000E+00
  0.00000000E+00  0.00000000E+00  0.00000000E+00
  0.00000000E+00  0.00000000E+00  0.00000000E+00
  0.00000000E+00  0.00000000E+00  0.00000000E+00
  0.00000000E+00  0.00000000E+00  0.00000000E+00
  0.00000000E+00  0.00000000E+00  0.00000000E+00
  0.00000000E+00  0.00000000E+00  0.00000000E+00
  0.00000000E+00  0.00000000E+00  0.00000000E+00
  0.00000000E+00  0.00000000E+00  0.00000000E+00
  0.00000000E+00  0.00000000E+00  0.00000000E+00
  0.00000000E+00  0.00000000E+00  0.00000000E+00
  0.00000000E+00  0.00000000E+00  0.00000000E+00
  0.00000000E+00  0.00000000E+00  0.00000000E+00
  0.00000000E+00  0.00000000E+00  0.00000000E+00
  0.00000000E+00  0.00000000E+00  0.00000000E+00
  0.00000000E+00  0.00000000E+00  0.00000000E+00
  0.00000000E+00  0.00000000E+00  0.00000000E+00
  0.00000000E+00  0.00000000E+00  0.00000000E+00
  0.00000000E+00  0.00000000E+00  0.00000000E+00
  0.00000000E+00  0.00000000E+00  0.00000000E+00
  0.00000000E+00  0.00000000E+00  0.00000000E+00
  0.00000000E+00  0.00000000E+00  0.00000000E+00
  0.00000000E+00  0.00000000E+00  0.00000000E+00
  0.00000000E+00  0.00000000E+00  0.00000000E+00
  0.00000000E+00  0.00000000E+00  0.00000000E+00
  0.00000000E+00  0.00000000E+00  0.00000000E+00
  0.00000000E+00  0.00000000E+00  0.00000000E+00
  0.00000000E+00  0.00000000E+00  0.00000000E+00
  0.00000000E+00  0.00000000E+00  0.00000000E+00
  0.00000000E+00  0.00000000E+00  0.00000000E+00
  0.00000000E+00  0.00000000E+00  0.00000000E+00
  0.00000000E+00  0.00000000E+00  0.00000000E+00
  0.00000000E+00  0.00000000E+00  0.00000000E+00
  0.00000000E+00  0.00000000E+00  0.00000000E+00
  0.00000000E+00  0.00000000E+00  0.00000000E+00
  0.00000000E+00  0.00000000E+00  0.00000000E+00
  0.00000000E+00  0.00000000E+00  0.00000000E+00
  0.00000000E+00  0.00000000E+00  0.00000000E+00
  0.00000000E+00  0.00000000E+00  0.00000000E+00
