#generated using str2pos                
    1.000000000000000     
    12.8517878417637199    0.0038319889247697    0.0040735621961629
     0.0038340968217641   12.8423933283498712    0.0018295682179106
     0.0040746749188199    0.0018291060114000   12.8460449776584742
   Ta   W 
    45    83
Direct
  0.2506081151730420  0.2497460570911761  0.2500665458126706
  0.6260130420001597  0.1275174623274820  0.1248428502073090
  0.0034776040166095  0.2494023216485584  0.2509687573445639
  0.8746226233626772  0.1254227599898467  0.1229669180245385
  0.6243599906201189  0.3744986631295822  0.1263028578140180
  0.8745451951535906  0.3746792717472714  0.1254694411753554
  0.1259795160572819  0.6251149478994039  0.1250748612758532
  0.3746818939444710  0.6249759031611760  0.1253192080517257
  0.7497984052474131  0.7502479419356615  0.2478688673171226
  0.2510199733805880  0.0010299589066365  0.2507079583221159
  0.1233699855448868  0.8726576379223194  0.1253238438092868
  0.7505523242565518 -0.0016130343693676  0.2507448574072998
  0.2492191789575183  0.2510309481649604  0.4987981629482381
  0.7507099722180831  0.2492983198063788  0.4998015672603732
  0.2492802306648939  0.4993699618806719  0.5004296596556224
  0.8749428329368845  0.3777581463548730  0.3745234981674624
  0.2482431303307187  0.7491680229685581  0.4997789908358978
  0.3766832583204207  0.6246664684189682  0.3727682932249640
  0.8753467039235568  0.6236890842129935  0.3761399559730668
  0.7521689842240180  0.0018021411092073  0.4980757312637021
  0.6220321798325151  0.8734786915159144  0.3763719839995174
  0.0007325542565446  0.0001874417675736  0.4993674861074371
  0.2477567911276848  0.2503580409938788  0.7501102104250502
  0.3762879879972441  0.1227796645241780  0.6245318251087679
  0.7519086831672237  0.2505423860605743  0.7508549240039118
  0.6215073447865308  0.1239782654956176  0.6263563602305793
 -0.0003239186353119  0.2499940603080492  0.7499626957835234
  0.2491655998922764  0.4988524977343018  0.7465902563318421
  0.7499722043062649  0.4999897310042292  0.7499840081453636
  0.6227691693481437  0.3762977956767836  0.6235506360667297
  0.3757125026259835  0.8757821075998902  0.6255831617732571
  0.6243170762506927  0.8731177752989200  0.6258113039652282
 -0.0002552407502979  0.0016138411245150  0.7495684951465170
  0.8736460486475961  0.8715996662125300  0.6261092927410841
  0.2494430344832321  0.2490372984973616  0.0011943003418769
  0.3773874235945300  0.3763314864020321  0.8760300176329883
  0.7493875939450707  0.5020446081789954 -0.0012642558820002
  0.1244403709918977  0.6260081279713677  0.8759250788358514
  0.3756546262970205  0.6253614150733532  0.8761400258298742
  0.7489190728189230  0.7509239552099259  0.0011564163411502
  0.8776734208520288  0.6264467395146620  0.8734532489576500
  0.2513642861680763  0.0032233925169154  0.0017805556144202
  0.1249360175642052  0.8731919578156436  0.8753954419542301
  0.5002225732971642  0.0000381470781537  0.0008349523821305
  0.3749477092919447  0.8728673034828132  0.8731888802049572
  0.1227366343148923  0.1241373899877146  0.1249126832835036
  0.4982975847962934  0.2503587072783388  0.2514885143744170
  0.3780511183536707  0.1261640145747027  0.1267006004110374
  0.7492580423061602  0.2493963162107863  0.2523786792125611
  0.2500449846683158  0.4977031920106766  0.2511409644906361
  0.1244568297615713  0.3780050945187999  0.1247472361342665
  0.5005419653699127  0.4991517073516900  0.2510635315902566
  0.3766001399040501  0.3770850357864213  0.1251328702405830
  0.7482939088481809  0.5023401809551323  0.2498448332167967
  0.0017809333083039  0.5003403324785611  0.2503159313427801
  0.2500083858107908  0.7516895186056172  0.2524145840348774
  0.5009025023703212  0.7501858585547124  0.2493322922370337
  0.6224108547821779  0.6239307849377825  0.1258328364485819
 -0.0011330928982014  0.7504137692203742  0.2512341444902828
  0.8772711128848368  0.6245962130790254  0.1259559846495067
  0.4983943453733053  0.0001793932612468  0.2496753330566700
  0.3750216541847575  0.8726377697813800  0.1259075734081660
  0.6236024428761029  0.8753416065414769  0.1252727336205924
  0.0005238288130358 -0.0003353977535522  0.2515920665312866
  0.8769981973231005  0.8764050862333952  0.1239777008943832
  0.1253093829377968  0.1240188178335736  0.3759456090627329
  0.4990288011428997  0.2511795762549235  0.4974819110875220
  0.3769925494543285  0.1246300285358050  0.3762662538394876
  0.6226727868697987  0.1257850916233152  0.3739905526001564
  0.0007388981672306  0.2494719546395996  0.5008056086075717
  0.8761149906742646  0.1262904349005946  0.3731501891961321
  0.1239219207634442  0.3766442982214234  0.3748130685500801
  0.4997572549901936  0.4998755271053278  0.4993696296429136
  0.3773645862477023  0.3757997374442845  0.3738932017678789
  0.7491612880575905  0.5002701199095594  0.5008535956338140
  0.6244402065755895  0.3761438009681230  0.3741060677628565
  0.0012999652006059  0.5002829427614335  0.5011654166616475
  0.1234294576703883  0.6252089555785845  0.3734283932785615
  0.4992154246911522  0.7474681880225160  0.4998317258173973
  0.7500204504388732  0.7479691807281116  0.4997341788650987
  0.6245492641895337  0.6240931331256048  0.3760209981989528
  0.0015217667825808  0.7494666116705815  0.4997135087897890
  0.2479775804204938 -0.0004729076993043  0.4981111020318048
  0.1248496226573938  0.8740234111841325  0.3741230240447150
  0.4988422629609033  0.0001395608672877  0.4975883861370257
  0.3758495356921701  0.8747762361580025  0.3753227259689984
  0.8763750051404668  0.8723531463935242  0.3750847283396259
  0.1264699719532381  0.1241221959041510  0.6240179736318572
  0.5001163625229456  0.2505368469528756  0.7516687515023441
  0.8746644435530734  0.1245745165136983  0.6254798109861975
  0.1223653929004924  0.3759340640990755  0.6237425128799264
  0.5008943078444326  0.5010616297310366  0.7486256047951483
  0.3774242078961064  0.3742547119848852  0.6246318947998004
 -0.0000949497259116  0.4983638456345730  0.7480492690109845
  0.8757667716430578  0.3773250817254304  0.6230602713412998
  0.2494779239338616  0.7485339057060660  0.7467136270143977
  0.1224034442770447  0.6252711792970533  0.6252358916202980
  0.5016737196396618  0.7478898250781481  0.7500046166656439
  0.3770372327574072  0.6258693359937733  0.6250375760609334
  0.7490815932395590  0.7488185269553979  0.7512765017221349
  0.6247512332473980  0.6252831709690687  0.6240473405638528
 -0.0005081727365472  0.7496540387349815  0.7479541919716943
  0.8750187233940550  0.6258462270627673  0.6237771626782761
  0.2482719007406647  0.0012166937071849  0.7501640300539062
  0.1254698477618866  0.8735507598296554  0.6253806240136971
  0.5009936131223489 -0.0000168696160634  0.7530976427425691
  0.7509189847953487  0.0006029974845765  0.7521852794112104
  0.1239031692885802  0.1241104840302900  0.8755984655554803
  0.4992150825281422  0.2494414828466774  0.0002638871712506
  0.3772312753471815  0.1253990011640108  0.8733569226779874
  0.7501537371945469  0.2506269590620748 -0.0032928314535100
  0.6258544283450331  0.1248014736961954  0.8755247866736886
  0.0017103974164765  0.2503065685413511 -0.0015494632843172
  0.8739397982645344  0.1244323584575592  0.8777438380798777
  0.2494734319841881  0.4969531446379490  0.0008727874433611
  0.1239270599287265  0.3767702376566008  0.8764982551337870
  0.5018557782548297  0.5003125636041864  0.0005101615719862
  0.6229594051076871  0.3744617261890753  0.8759247656350537
 -0.0003190422045206  0.4987148463894783 -0.0000042210503570
  0.8762652728012459  0.3754774528653553  0.8766850337895312
  0.2512570383746466  0.7511253193558052  0.0011834680330298
  0.5031108022249038  0.7511680284183533  0.0008395762476655
  0.6233577163630168  0.6262488842808686  0.8737288368011000
 -0.0032611749063120  0.7509276930129175  0.0011194691209560
  0.7497354612785513 -0.0015278659316291 -0.0012073831730327
  0.6250702133934295  0.8753788012925006  0.8737431918938133
 -0.0008958588607519  0.0010928832066748 -0.0008584265117336
  0.8745360077480918  0.8754314722695429  0.8748872086921020
 
  0.00000000E+00  0.00000000E+00  0.00000000E+00
  0.00000000E+00  0.00000000E+00  0.00000000E+00
  0.00000000E+00  0.00000000E+00  0.00000000E+00
  0.00000000E+00  0.00000000E+00  0.00000000E+00
  0.00000000E+00  0.00000000E+00  0.00000000E+00
  0.00000000E+00  0.00000000E+00  0.00000000E+00
  0.00000000E+00  0.00000000E+00  0.00000000E+00
  0.00000000E+00  0.00000000E+00  0.00000000E+00
  0.00000000E+00  0.00000000E+00  0.00000000E+00
  0.00000000E+00  0.00000000E+00  0.00000000E+00
  0.00000000E+00  0.00000000E+00  0.00000000E+00
  0.00000000E+00  0.00000000E+00  0.00000000E+00
  0.00000000E+00  0.00000000E+00  0.00000000E+00
  0.00000000E+00  0.00000000E+00  0.00000000E+00
  0.00000000E+00  0.00000000E+00  0.00000000E+00
  0.00000000E+00  0.00000000E+00  0.00000000E+00
  0.00000000E+00  0.00000000E+00  0.00000000E+00
  0.00000000E+00  0.00000000E+00  0.00000000E+00
  0.00000000E+00  0.00000000E+00  0.00000000E+00
  0.00000000E+00  0.00000000E+00  0.00000000E+00
  0.00000000E+00  0.00000000E+00  0.00000000E+00
  0.00000000E+00  0.00000000E+00  0.00000000E+00
  0.00000000E+00  0.00000000E+00  0.00000000E+00
  0.00000000E+00  0.00000000E+00  0.00000000E+00
  0.00000000E+00  0.00000000E+00  0.00000000E+00
  0.00000000E+00  0.00000000E+00  0.00000000E+00
  0.00000000E+00  0.00000000E+00  0.00000000E+00
  0.00000000E+00  0.00000000E+00  0.00000000E+00
  0.00000000E+00  0.00000000E+00  0.00000000E+00
  0.00000000E+00  0.00000000E+00  0.00000000E+00
  0.00000000E+00  0.00000000E+00  0.00000000E+00
  0.00000000E+00  0.00000000E+00  0.00000000E+00
  0.00000000E+00  0.00000000E+00  0.00000000E+00
  0.00000000E+00  0.00000000E+00  0.00000000E+00
  0.00000000E+00  0.00000000E+00  0.00000000E+00
  0.00000000E+00  0.00000000E+00  0.00000000E+00
  0.00000000E+00  0.00000000E+00  0.00000000E+00
  0.00000000E+00  0.00000000E+00  0.00000000E+00
  0.00000000E+00  0.00000000E+00  0.00000000E+00
  0.00000000E+00  0.00000000E+00  0.00000000E+00
  0.00000000E+00  0.00000000E+00  0.00000000E+00
  0.00000000E+00  0.00000000E+00  0.00000000E+00
  0.00000000E+00  0.00000000E+00  0.00000000E+00
  0.00000000E+00  0.00000000E+00  0.00000000E+00
  0.00000000E+00  0.00000000E+00  0.00000000E+00
  0.00000000E+00  0.00000000E+00  0.00000000E+00
  0.00000000E+00  0.00000000E+00  0.00000000E+00
  0.00000000E+00  0.00000000E+00  0.00000000E+00
  0.00000000E+00  0.00000000E+00  0.00000000E+00
  0.00000000E+00  0.00000000E+00  0.00000000E+00
  0.00000000E+00  0.00000000E+00  0.00000000E+00
  0.00000000E+00  0.00000000E+00  0.00000000E+00
  0.00000000E+00  0.00000000E+00  0.00000000E+00
  0.00000000E+00  0.00000000E+00  0.00000000E+00
  0.00000000E+00  0.00000000E+00  0.00000000E+00
  0.00000000E+00  0.00000000E+00  0.00000000E+00
  0.00000000E+00  0.00000000E+00  0.00000000E+00
  0.00000000E+00  0.00000000E+00  0.00000000E+00
  0.00000000E+00  0.00000000E+00  0.00000000E+00
  0.00000000E+00  0.00000000E+00  0.00000000E+00
  0.00000000E+00  0.00000000E+00  0.00000000E+00
  0.00000000E+00  0.00000000E+00  0.00000000E+00
  0.00000000E+00  0.00000000E+00  0.00000000E+00
  0.00000000E+00  0.00000000E+00  0.00000000E+00
  0.00000000E+00  0.00000000E+00  0.00000000E+00
  0.00000000E+00  0.00000000E+00  0.00000000E+00
  0.00000000E+00  0.00000000E+00  0.00000000E+00
  0.00000000E+00  0.00000000E+00  0.00000000E+00
  0.00000000E+00  0.00000000E+00  0.00000000E+00
  0.00000000E+00  0.00000000E+00  0.00000000E+00
  0.00000000E+00  0.00000000E+00  0.00000000E+00
  0.00000000E+00  0.00000000E+00  0.00000000E+00
  0.00000000E+00  0.00000000E+00  0.00000000E+00
  0.00000000E+00  0.00000000E+00  0.00000000E+00
  0.00000000E+00  0.00000000E+00  0.00000000E+00
  0.00000000E+00  0.00000000E+00  0.00000000E+00
  0.00000000E+00  0.00000000E+00  0.00000000E+00
  0.00000000E+00  0.00000000E+00  0.00000000E+00
  0.00000000E+00  0.00000000E+00  0.00000000E+00
  0.00000000E+00  0.00000000E+00  0.00000000E+00
  0.00000000E+00  0.00000000E+00  0.00000000E+00
  0.00000000E+00  0.00000000E+00  0.00000000E+00
  0.00000000E+00  0.00000000E+00  0.00000000E+00
  0.00000000E+00  0.00000000E+00  0.00000000E+00
  0.00000000E+00  0.00000000E+00  0.00000000E+00
  0.00000000E+00  0.00000000E+00  0.00000000E+00
  0.00000000E+00  0.00000000E+00  0.00000000E+00
  0.00000000E+00  0.00000000E+00  0.00000000E+00
  0.00000000E+00  0.00000000E+00  0.00000000E+00
  0.00000000E+00  0.00000000E+00  0.00000000E+00
  0.00000000E+00  0.00000000E+00  0.00000000E+00
  0.00000000E+00  0.00000000E+00  0.00000000E+00
  0.00000000E+00  0.00000000E+00  0.00000000E+00
  0.00000000E+00  0.00000000E+00  0.00000000E+00
  0.00000000E+00  0.00000000E+00  0.00000000E+00
  0.00000000E+00  0.00000000E+00  0.00000000E+00
  0.00000000E+00  0.00000000E+00  0.00000000E+00
  0.00000000E+00  0.00000000E+00  0.00000000E+00
  0.00000000E+00  0.00000000E+00  0.00000000E+00
  0.00000000E+00  0.00000000E+00  0.00000000E+00
  0.00000000E+00  0.00000000E+00  0.00000000E+00
  0.00000000E+00  0.00000000E+00  0.00000000E+00
  0.00000000E+00  0.00000000E+00  0.00000000E+00
  0.00000000E+00  0.00000000E+00  0.00000000E+00
  0.00000000E+00  0.00000000E+00  0.00000000E+00
  0.00000000E+00  0.00000000E+00  0.00000000E+00
  0.00000000E+00  0.00000000E+00  0.00000000E+00
  0.00000000E+00  0.00000000E+00  0.00000000E+00
  0.00000000E+00  0.00000000E+00  0.00000000E+00
  0.00000000E+00  0.00000000E+00  0.00000000E+00
  0.00000000E+00  0.00000000E+00  0.00000000E+00
  0.00000000E+00  0.00000000E+00  0.00000000E+00
  0.00000000E+00  0.00000000E+00  0.00000000E+00
  0.00000000E+00  0.00000000E+00  0.00000000E+00
  0.00000000E+00  0.00000000E+00  0.00000000E+00
  0.00000000E+00  0.00000000E+00  0.00000000E+00
  0.00000000E+00  0.00000000E+00  0.00000000E+00
  0.00000000E+00  0.00000000E+00  0.00000000E+00
  0.00000000E+00  0.00000000E+00  0.00000000E+00
  0.00000000E+00  0.00000000E+00  0.00000000E+00
  0.00000000E+00  0.00000000E+00  0.00000000E+00
  0.00000000E+00  0.00000000E+00  0.00000000E+00
  0.00000000E+00  0.00000000E+00  0.00000000E+00
  0.00000000E+00  0.00000000E+00  0.00000000E+00
  0.00000000E+00  0.00000000E+00  0.00000000E+00
  0.00000000E+00  0.00000000E+00  0.00000000E+00
  0.00000000E+00  0.00000000E+00  0.00000000E+00
  0.00000000E+00  0.00000000E+00  0.00000000E+00
