#generated using str2pos                
    1.000000000000000     
    12.9899438026824576    0.0063127129449748   -0.0002095849608262
     0.0063126571124096   12.9890206745825001   -0.0225929973609764
    -0.0002151968473798   -0.0225919059318064   12.9892564496164038
   Ta   W 
    77    51
Direct
  0.1272313403769785  0.1207473697287813  0.1271134640410642
  0.5023253288364425  0.2487970607812673  0.2470196199448279
  0.3727920358184467  0.1201476570126189  0.1263455750916777
  0.7485315378404365  0.2493990028697789  0.2450679811998497
  0.0012997819879162  0.2509211333437119  0.2500688713111653
  0.8796236722552313  0.1220657461234807  0.1252820508515294
  0.1253189363474597  0.3763851241269401  0.1272463431302537
  0.5029677052410705  0.5028147264451486  0.2500484338240830
  0.3714967789372245  0.3735397589898232  0.1293279111138367
  0.7468820594004897  0.5019948123867263  0.2493922183777752
  0.8779468255712464  0.3795454544904028  0.1223318907352828
  0.2524963941822967  0.7504892794459844  0.2540767026191469
  0.1255009515576034  0.6238735389600287  0.1238327235795324
  0.5010166308390560  0.7495773193753373  0.2529035789044954
  0.3730070499428039  0.6259966501865335  0.1234668486249274
  0.7460666486921462  0.7506203411722689  0.2494377081776197
  0.0040252811401137  0.7514960797901443  0.2514143609309162
  0.8794212624368291  0.6239500401813223  0.1223423734742906
  0.1268044612421729  0.8759419001188907  0.1235086361090497
  0.3741242413113972  0.8758401164431447  0.1233103762913424
  0.7466213746568557 -0.0017054697883229  0.2475913975063040
  0.8802798877205560  0.8755389435251085  0.1247739610891735
  0.2507902176356595  0.2492360792073227  0.5022237030237893
  0.1257237011030125  0.1220232492366710  0.3753965540121157
  0.4970706126070389  0.2476519244224656  0.5041661187752181
  0.3730412164109098  0.1213613079413996  0.3727774194224288
  0.6224388987843565  0.1242612759434893  0.3759263290400258
  0.8775317205277705  0.1246343848859350  0.3767549290041418
  0.5000571033041932  0.5057493388504105  0.4998233164751433
  0.3720229798412965  0.3751829950843197  0.3748429954700307
  0.7499263298932283  0.5061054348902715  0.5016384399028054
  0.6272721050039317  0.3716566585642355  0.3788893533645759
 -0.0001167321149054  0.5011071168957461  0.5005714795832982
  0.8757722526051321  0.3742480674142452  0.3758891785621703
  0.1268090043229118  0.6248397935514282  0.3773812273877855
  0.4992970904030649  0.7478734851591088  0.4969991282360843
  0.7471847700353743  0.7487996874533760  0.4987816796924422
  0.8797236450768349  0.6264445874145090  0.3730493608802905
  0.7464706119069380 -0.0007997217846502  0.4993641883441583
  0.8792399421916792  0.8768667786995505  0.3753953124047291
  0.2501118084537425  0.2488444414373604  0.7522946643144525
  0.1210763358236328  0.1257853340401995  0.6224323739768535
  0.4994703195763165  0.2482598605845600  0.7522692901731258
  0.7470184749714351  0.2486702005545094  0.7537380865198816
  0.8771634841328780  0.1281818446084060  0.6217052293851874
  0.1241107633255315  0.3770421428022711  0.6267379430112832
  0.3730806357556152  0.3796616334327449  0.6263310111767811
  0.7489234849156671  0.5026961747536933  0.7480571775085845
  0.6245063272974727  0.3752264291310512  0.6246737018676921
  0.8773554868415091  0.3726386408400006  0.6259440061811490
  0.1277783144239788  0.6256408067086523  0.6257045899253043
  0.4988938056937445  0.7480156328296028  0.7457222357417214
  0.7517257837005471  0.7502603114882016  0.7478174051856172
 -0.0004797972121012  0.7542378246274658  0.7496433219102003
  0.2461299790138128  0.0003254655810109  0.7493745462243543
  0.4987915244805315  0.0035880620539608  0.7487683397662342
  0.3714952648438398  0.8741065732642689  0.6227837017056344
  0.7498085309901509  0.0032235389011058  0.7525894584669057
  0.6218003781658723  0.8771169834167204  0.6240767124255608
  0.0007284719737748 -0.0008854964319802  0.7529176560905912
  0.8772127608754929  0.8776532908137271  0.6209723032273388
  0.2485060243066771  0.2504767248893925 -0.0042466586630490
  0.5028242484572951  0.2510523975113058 -0.0008069269915567
  0.3738111727260583  0.1201401627422748  0.8794355242909839
  0.7478204468259041  0.2480084034082455 -0.0014527191037268
  0.0019198252638209  0.2479799471901893 -0.0027334504546058
  0.2515554808970100  0.4955505681213190 -0.0027730147813517
  0.5010068276168869  0.4961240628103607  0.0006991516203578
  0.8773249025140452  0.3786271912886958  0.8743168744614470
  0.1259110994446531  0.6254162469947430  0.8740268983920285
  0.3731351126682257  0.6267420899998942  0.8737441431749304
  0.7499543840563481  0.7523646799803887  0.0011349074667431
  0.6232286723092476  0.6256304958727962  0.8760009263666723
  0.8783608824518515  0.6232571032599840  0.8778857900316457
  0.3729353069828593  0.8723424573137808  0.8778491865344736
  0.7498236604544186  0.0010989690489477 -0.0012847140416837
  0.6201647673788531  0.8731891698673366  0.8765029094071566
  0.2489605459382252  0.2495943197090437  0.2519480151594928
  0.6223059610674325  0.1218632675660446  0.1252428367134438
  0.2514885351885440  0.5009034912678855  0.2524072442506954
  0.6265511591835680  0.3755257357085243  0.1242607142476627
  0.0018979526531951  0.4992839428898703  0.2521489466648892
  0.6253683722137096  0.6255532437278906  0.1220410610586413
  0.2508161290310692 -0.0041518110238580  0.2530624737108298
  0.5010880708631404 -0.0036909322893995  0.2500357232261199
  0.6210055163025648  0.8751172967259181  0.1233329760327223
  0.0019871038705447 -0.0012431191316851  0.2504945619281336
  0.7483436697726900  0.2494180720035959  0.5016602492786297
  0.0025705512994785  0.2524115235792646  0.4986460367098138
  0.2509243408514085  0.5016033856731508  0.5003246460107917
  0.1262047451910495  0.3756381329237615  0.3752541466857477
  0.2517857351575936  0.7512166803679007  0.4991859946113824
  0.3716442872283167  0.6242015554028305  0.3761523766338667
  0.6251658174482377  0.6254366121883134  0.3744233875215012
  0.0023388279958269  0.7507831827872832  0.5017121941401261
  0.2496333962231984 -0.0025598153261415  0.5007803242487149
  0.1261066755699838  0.8763424786813562  0.3767197545751935
  0.4975825842838318 -0.0010837389996571  0.4997859651996654
  0.3730195501398868  0.8768782582769601  0.3759633492536722
  0.6219568545292096  0.8777027748983812  0.3743775967613522
  0.0024778792692030 -0.0014458760901509  0.5004776131095893
  0.3723378197709611  0.1226680194345576  0.6238090985503272
  0.6248602858914422  0.1256672027640975  0.6231014871214358
  0.0008641767127980  0.2490066396563597  0.7529596791677790
  0.2509084423083409  0.4990598732739594  0.7510920446431779
  0.4997114021676692  0.4997273207192193  0.7502640160820266
  0.0002633151921768  0.5019102903724575  0.7488927306502589
  0.2481498579302127  0.7511925962451298  0.7479847415803251
  0.3710097294271777  0.6251813095013470  0.6263656972715914
  0.6230832953201155  0.6251967826980629  0.6267485361929398
  0.8789419219076425  0.6266607220265562  0.6251623595964086
  0.1260541153576783  0.8742338080428927  0.6222348368758454
  0.1243684067818593  0.1231325305086366  0.8756120240483424
  0.6228319408959471  0.1233573405249766  0.8762932120271981
  0.8769771075607058  0.1263209564091044  0.8743790978921708
  0.1226734022784803  0.3770313885846729  0.8725815520643742
  0.3745507677483360  0.3766317430471985  0.8728196889034124
  0.7469685516680344  0.4991930908437210  0.0002776440579145
  0.6257487688768354  0.3779005679791804  0.8738464290445752
  0.0027761423573680  0.4985466245661510 -0.0019242366411225
  0.2491632157553440  0.7496091861017412 -0.0005217567211579
  0.5013777712572373  0.7483593639358695  0.0029577847475115
  0.0008633587590326  0.7526653949231481 -0.0027601630804143
  0.2475470506398723 -0.0010236795407775 -0.0019377774913227
  0.1265432143914238  0.8731688120364446  0.8774082867508360
  0.5019877189381597  0.0004603112379012  0.0015068173316536
  0.0000008212923549  0.0002718762330497 -0.0047488767267627
  0.8771925292700861  0.8750618710811141  0.8765305353236892
 
  0.00000000E+00  0.00000000E+00  0.00000000E+00
  0.00000000E+00  0.00000000E+00  0.00000000E+00
  0.00000000E+00  0.00000000E+00  0.00000000E+00
  0.00000000E+00  0.00000000E+00  0.00000000E+00
  0.00000000E+00  0.00000000E+00  0.00000000E+00
  0.00000000E+00  0.00000000E+00  0.00000000E+00
  0.00000000E+00  0.00000000E+00  0.00000000E+00
  0.00000000E+00  0.00000000E+00  0.00000000E+00
  0.00000000E+00  0.00000000E+00  0.00000000E+00
  0.00000000E+00  0.00000000E+00  0.00000000E+00
  0.00000000E+00  0.00000000E+00  0.00000000E+00
  0.00000000E+00  0.00000000E+00  0.00000000E+00
  0.00000000E+00  0.00000000E+00  0.00000000E+00
  0.00000000E+00  0.00000000E+00  0.00000000E+00
  0.00000000E+00  0.00000000E+00  0.00000000E+00
  0.00000000E+00  0.00000000E+00  0.00000000E+00
  0.00000000E+00  0.00000000E+00  0.00000000E+00
  0.00000000E+00  0.00000000E+00  0.00000000E+00
  0.00000000E+00  0.00000000E+00  0.00000000E+00
  0.00000000E+00  0.00000000E+00  0.00000000E+00
  0.00000000E+00  0.00000000E+00  0.00000000E+00
  0.00000000E+00  0.00000000E+00  0.00000000E+00
  0.00000000E+00  0.00000000E+00  0.00000000E+00
  0.00000000E+00  0.00000000E+00  0.00000000E+00
  0.00000000E+00  0.00000000E+00  0.00000000E+00
  0.00000000E+00  0.00000000E+00  0.00000000E+00
  0.00000000E+00  0.00000000E+00  0.00000000E+00
  0.00000000E+00  0.00000000E+00  0.00000000E+00
  0.00000000E+00  0.00000000E+00  0.00000000E+00
  0.00000000E+00  0.00000000E+00  0.00000000E+00
  0.00000000E+00  0.00000000E+00  0.00000000E+00
  0.00000000E+00  0.00000000E+00  0.00000000E+00
  0.00000000E+00  0.00000000E+00  0.00000000E+00
  0.00000000E+00  0.00000000E+00  0.00000000E+00
  0.00000000E+00  0.00000000E+00  0.00000000E+00
  0.00000000E+00  0.00000000E+00  0.00000000E+00
  0.00000000E+00  0.00000000E+00  0.00000000E+00
  0.00000000E+00  0.00000000E+00  0.00000000E+00
  0.00000000E+00  0.00000000E+00  0.00000000E+00
  0.00000000E+00  0.00000000E+00  0.00000000E+00
  0.00000000E+00  0.00000000E+00  0.00000000E+00
  0.00000000E+00  0.00000000E+00  0.00000000E+00
  0.00000000E+00  0.00000000E+00  0.00000000E+00
  0.00000000E+00  0.00000000E+00  0.00000000E+00
  0.00000000E+00  0.00000000E+00  0.00000000E+00
  0.00000000E+00  0.00000000E+00  0.00000000E+00
  0.00000000E+00  0.00000000E+00  0.00000000E+00
  0.00000000E+00  0.00000000E+00  0.00000000E+00
  0.00000000E+00  0.00000000E+00  0.00000000E+00
  0.00000000E+00  0.00000000E+00  0.00000000E+00
  0.00000000E+00  0.00000000E+00  0.00000000E+00
  0.00000000E+00  0.00000000E+00  0.00000000E+00
  0.00000000E+00  0.00000000E+00  0.00000000E+00
  0.00000000E+00  0.00000000E+00  0.00000000E+00
  0.00000000E+00  0.00000000E+00  0.00000000E+00
  0.00000000E+00  0.00000000E+00  0.00000000E+00
  0.00000000E+00  0.00000000E+00  0.00000000E+00
  0.00000000E+00  0.00000000E+00  0.00000000E+00
  0.00000000E+00  0.00000000E+00  0.00000000E+00
  0.00000000E+00  0.00000000E+00  0.00000000E+00
  0.00000000E+00  0.00000000E+00  0.00000000E+00
  0.00000000E+00  0.00000000E+00  0.00000000E+00
  0.00000000E+00  0.00000000E+00  0.00000000E+00
  0.00000000E+00  0.00000000E+00  0.00000000E+00
  0.00000000E+00  0.00000000E+00  0.00000000E+00
  0.00000000E+00  0.00000000E+00  0.00000000E+00
  0.00000000E+00  0.00000000E+00  0.00000000E+00
  0.00000000E+00  0.00000000E+00  0.00000000E+00
  0.00000000E+00  0.00000000E+00  0.00000000E+00
  0.00000000E+00  0.00000000E+00  0.00000000E+00
  0.00000000E+00  0.00000000E+00  0.00000000E+00
  0.00000000E+00  0.00000000E+00  0.00000000E+00
  0.00000000E+00  0.00000000E+00  0.00000000E+00
  0.00000000E+00  0.00000000E+00  0.00000000E+00
  0.00000000E+00  0.00000000E+00  0.00000000E+00
  0.00000000E+00  0.00000000E+00  0.00000000E+00
  0.00000000E+00  0.00000000E+00  0.00000000E+00
  0.00000000E+00  0.00000000E+00  0.00000000E+00
  0.00000000E+00  0.00000000E+00  0.00000000E+00
  0.00000000E+00  0.00000000E+00  0.00000000E+00
  0.00000000E+00  0.00000000E+00  0.00000000E+00
  0.00000000E+00  0.00000000E+00  0.00000000E+00
  0.00000000E+00  0.00000000E+00  0.00000000E+00
  0.00000000E+00  0.00000000E+00  0.00000000E+00
  0.00000000E+00  0.00000000E+00  0.00000000E+00
  0.00000000E+00  0.00000000E+00  0.00000000E+00
  0.00000000E+00  0.00000000E+00  0.00000000E+00
  0.00000000E+00  0.00000000E+00  0.00000000E+00
  0.00000000E+00  0.00000000E+00  0.00000000E+00
  0.00000000E+00  0.00000000E+00  0.00000000E+00
  0.00000000E+00  0.00000000E+00  0.00000000E+00
  0.00000000E+00  0.00000000E+00  0.00000000E+00
  0.00000000E+00  0.00000000E+00  0.00000000E+00
  0.00000000E+00  0.00000000E+00  0.00000000E+00
  0.00000000E+00  0.00000000E+00  0.00000000E+00
  0.00000000E+00  0.00000000E+00  0.00000000E+00
  0.00000000E+00  0.00000000E+00  0.00000000E+00
  0.00000000E+00  0.00000000E+00  0.00000000E+00
  0.00000000E+00  0.00000000E+00  0.00000000E+00
  0.00000000E+00  0.00000000E+00  0.00000000E+00
  0.00000000E+00  0.00000000E+00  0.00000000E+00
  0.00000000E+00  0.00000000E+00  0.00000000E+00
  0.00000000E+00  0.00000000E+00  0.00000000E+00
  0.00000000E+00  0.00000000E+00  0.00000000E+00
  0.00000000E+00  0.00000000E+00  0.00000000E+00
  0.00000000E+00  0.00000000E+00  0.00000000E+00
  0.00000000E+00  0.00000000E+00  0.00000000E+00
  0.00000000E+00  0.00000000E+00  0.00000000E+00
  0.00000000E+00  0.00000000E+00  0.00000000E+00
  0.00000000E+00  0.00000000E+00  0.00000000E+00
  0.00000000E+00  0.00000000E+00  0.00000000E+00
  0.00000000E+00  0.00000000E+00  0.00000000E+00
  0.00000000E+00  0.00000000E+00  0.00000000E+00
  0.00000000E+00  0.00000000E+00  0.00000000E+00
  0.00000000E+00  0.00000000E+00  0.00000000E+00
  0.00000000E+00  0.00000000E+00  0.00000000E+00
  0.00000000E+00  0.00000000E+00  0.00000000E+00
  0.00000000E+00  0.00000000E+00  0.00000000E+00
  0.00000000E+00  0.00000000E+00  0.00000000E+00
  0.00000000E+00  0.00000000E+00  0.00000000E+00
  0.00000000E+00  0.00000000E+00  0.00000000E+00
  0.00000000E+00  0.00000000E+00  0.00000000E+00
  0.00000000E+00  0.00000000E+00  0.00000000E+00
  0.00000000E+00  0.00000000E+00  0.00000000E+00
  0.00000000E+00  0.00000000E+00  0.00000000E+00
  0.00000000E+00  0.00000000E+00  0.00000000E+00
  0.00000000E+00  0.00000000E+00  0.00000000E+00
  0.00000000E+00  0.00000000E+00  0.00000000E+00
