#generated using str2pos                
    1.000000000000000     
    12.8200342432065639    0.0004520168620789    0.0055048414676426
     0.0004519442645723   12.8220058909161381   -0.0009338574449690
     0.0055050500357751   -0.0009341869905038   12.8204760472233996
   Ta   W 
    38    90
Direct
  0.2474415618850826  0.2515321139268985  0.2509636677145921
  0.3774656590476423  0.1252439652766841  0.1245706279606785
  0.6253381835357148  0.1250779217497275  0.1248247168853122
  0.0000210997140648  0.2502672186985752  0.2499636403231522
  0.3775392453234127  0.3751326370582282  0.1244554341422177
  0.7500817862851453  0.5004815853428116  0.2498271707229733
 -0.0004681173163461  0.5000722530657616  0.2500655726130372
  0.5002174776427479  0.7492520403253566  0.2502428113437825
  0.7485651345081643  0.7487239223986691  0.2492173985119601
  0.2489225011972795  0.2511505882529965  0.5011636483584934
  0.3775135084836781  0.1254124673346841  0.3729133461983598
  0.7519936865738266  0.2502823832987937  0.5005704810329717
  0.6253349363038166  0.1250652538562518  0.3728136057352175
  0.0000114055451841  0.2503234885391112  0.5002890693827625
  0.4990674251133156  0.5016015059580494  0.4991306543429959
  0.2520612647225836  0.7494775745438310  0.4999931887126333
  0.2504171028619037 -0.0001171498644681  0.5020881385610274
  0.1229174429348258  0.8741091012340693  0.3732818354896394
  0.5003813827716790 -0.0022533108683314  0.5020931786291715
  0.8759608892020889  0.8754610640745212  0.3758991954149030
  0.7505378768608673  0.2490028485824722  0.7512202104827134
  0.0000214074924542  0.2496852139881910  0.7503391600370166
  0.6236909828993279  0.3764519126058496  0.6262275835243922
  0.1239268279248536  0.6241098242395829  0.6253319748995588
  0.8751388802505319  0.6259767139741284  0.6254942531052210
  0.2502229274809612  0.0003229227743345  0.7504290770303768
  0.4993235798238929  0.0009419855749321  0.7492441886593898
  0.8743464418240076  0.8743207588907547  0.6249137219339991
 -0.0006146139369459  0.2495882504381498 -0.0002453353246779
  0.2488342600171240  0.5005895671745981 -0.0001006862282758
  0.0005407827722807  0.4993353121874660  0.0010137165432438
  0.2490810967504842  0.7505537048067212  0.0007090786060203
  0.3771151786665844  0.6243291908859260  0.8733180992379934
  0.6249871786819080  0.6251379512131933  0.8747995626720539
  0.8734878577831138  0.6258825324347002  0.8739225227392433
  0.2489296532937416 -0.0012042842823413 -0.0012689212015365
  0.6260167419949733  0.8739457135197040  0.8756952998229977
 -0.0003315743262102 -0.0001589751500212 -0.0001134906178164
  0.1255749172339388  0.1235456357202594  0.1253138029967674
  0.5011421256080233  0.2527001296256892  0.2497438476472160
  0.7518098303659789  0.2517265738572998  0.2496077707164609
  0.8722046676574473  0.1236594926602971  0.1253776935291251
  0.2492561424732669  0.5010445004799750  0.2506573993799824
  0.1269757211843896  0.3755842460910422  0.1248728471607166
  0.5009108170644047  0.5017404558749061  0.2509977718817555
  0.6241907107325516  0.3741851530759518  0.1237641340659939
  0.8720059887685940  0.3741428352571661  0.1242124901178155
  0.2511222018006516  0.7489272621353337  0.2492042025818931
  0.1247913373759503  0.6269777297623933  0.1267241432430473
  0.3755905020392306  0.6243604987050612  0.1255367381509828
  0.6243472124144068  0.6240890549316568  0.1227807093126396
 -0.0003432941489247  0.7485401423368626  0.2479598300391997
  0.8747382575156237  0.6267229009986365  0.1231900080386345
  0.2488925391754503 -0.0008862248788593  0.2488619516661079
  0.1239310291798700  0.8738640296913746  0.1269358061762586
  0.5006037796478154 -0.0039905526109179  0.2498710261513431
  0.3756781237340276  0.8754765982365034  0.1255020506794667
  0.7511168935688171 -0.0012339604890388  0.2487426655659228
  0.6251467949268990  0.8762335033207476  0.1230605941791293
 -0.0004195296604476  0.0010249749367184  0.2481167052375802
  0.8746636236742279  0.8751538487592548  0.1249782083580465
  0.1241431908216304  0.1223146014609805  0.3747294525312458
  0.4996968942949578  0.2515001532283003  0.5014483554709029
  0.8736803990651107  0.1225182149487001  0.3742016410181462
  0.2508297919586256  0.4997452082748003  0.4995847962696889
  0.1256375860391755  0.3781092993827058  0.3766281315785966
  0.3757331983819470  0.3764854958415264  0.3744632513681095
  0.7494068961488353  0.5002507894779061  0.4982246533843457
  0.6243457262170796  0.3746121472082372  0.3743359064618889
 -0.0000780097482863  0.4985954179291165  0.4985391178597155
  0.8740838756087669  0.3758582053771207  0.3756765756534784
  0.1252289574130240  0.6256090381528158  0.3754458785201085
  0.4998604009640805  0.7492764243058765  0.4993022322239871
  0.3743270702519853  0.6241760205477141  0.3746036360876143
  0.7473944243283096  0.7491896348042720  0.4989252743193872
  0.6244908776808689  0.6247712583420104  0.3761561469497620
  0.0007116852039403  0.7489950507278476  0.4993542145962335
  0.8755155130354675  0.6260280393142401  0.3774148845140059
  0.3747241225355175  0.8742607670630992  0.3734663167211182
  0.7493186541740354  0.0005291523911242  0.5007025574263040
  0.6262485023534682  0.8753238243251928  0.3756611420389882
  0.0003256036880525  0.0022313205978674  0.5007499896039826
  0.2500842848061369  0.2501068214158960  0.7498584005951964
  0.1241366940063800  0.1246208893242611  0.6263797037283897
  0.4993089131632044  0.2495553092673097  0.7513409494854563
  0.3756417578524301  0.1277651362334424  0.6261438280982917
  0.6254476669201428  0.1250880308955710  0.6249904982488343
  0.8751423155852064  0.1213739933446291  0.6252276944430378
  0.2501528041674130  0.4984708449144018  0.7499592321183254
  0.1261644584614878  0.3776559492852153  0.6262614119263197
  0.4989424051767232  0.4992460562569423  0.7488366944620893
  0.3751073480051109  0.3757986562630483  0.6267485772778207
  0.7496167248882099  0.4983742681156112  0.7501553468388212
  0.0009249000546486  0.4981774511716236  0.7507427737487667
  0.8747698815838373  0.3783562167501351  0.6254111878807485
  0.2501574594590766  0.7510198717370109  0.7500933806071115
  0.4991580151877307  0.7507142850703425  0.7477625233952182
  0.3746898014236683  0.6244650991044816  0.6261191365048696
  0.7492240879730246  0.7509501667760813  0.7493881535464337
  0.6257201599500698  0.6255911186182670  0.6256610365983595
  0.0012558006225849  0.7515062571855774  0.7518513207817471
  0.1223689996616504  0.8733604877481754  0.6255583885601994
  0.3761036156958845  0.8723091480369819  0.6259178224257566
  0.7498896669631020  0.0014933393018535  0.7504178750523578
  0.6267552351166543  0.8731776897018269  0.6257789971676940
  0.0007844917978957  0.0007416070630030  0.7511557333825153
  0.2492278004330888  0.2501733951929628 -0.0018365925943190
  0.1256913073527045  0.1256875017444526  0.8741537895608497
  0.5015813592462922  0.2509040753759370 -0.0027439254815551
  0.3760548566670211  0.1277119250626477  0.8758197861663448
  0.7503413056229271  0.2503593187758458 -0.0009507705837817
  0.6250338277941322  0.1248299186642268  0.8769956200866671
  0.8734196544346178  0.1233469704759124  0.8753407465391169
  0.1268817936924126  0.3750157107195776  0.8731989520869887
  0.5010060104990978  0.4990243937628671  0.0004456389685498
  0.3760288134727500  0.3747479848451012  0.8742885948352829
  0.7500427547406948  0.4986027772116126  0.0015939951304711
  0.6240686539634270  0.3758635609271846  0.8757669184848520
  0.8733383923798094  0.3765184885062605  0.8752002881962107
  0.1242232618965340  0.6255986585082953  0.8728173397742525
  0.4993276954961434  0.7502742876436935  0.0024173112239542
  0.7507821388146020  0.7507437205463945  0.0021963757844308
  0.0004678783299886  0.7507956570939345  0.0005234031997494
  0.1231212106723722  0.8737200725022248  0.8740063867658555
  0.4999586596792343 -0.0004714044785786 -0.0013621895788596
  0.3766709360635032  0.8733165857590528  0.8752687318860659
  0.7517716984789892  0.0001232311984355 -0.0001259754624401
  0.8738176864088384  0.8741178161399408  0.8743009586654624
 
  0.00000000E+00  0.00000000E+00  0.00000000E+00
  0.00000000E+00  0.00000000E+00  0.00000000E+00
  0.00000000E+00  0.00000000E+00  0.00000000E+00
  0.00000000E+00  0.00000000E+00  0.00000000E+00
  0.00000000E+00  0.00000000E+00  0.00000000E+00
  0.00000000E+00  0.00000000E+00  0.00000000E+00
  0.00000000E+00  0.00000000E+00  0.00000000E+00
  0.00000000E+00  0.00000000E+00  0.00000000E+00
  0.00000000E+00  0.00000000E+00  0.00000000E+00
  0.00000000E+00  0.00000000E+00  0.00000000E+00
  0.00000000E+00  0.00000000E+00  0.00000000E+00
  0.00000000E+00  0.00000000E+00  0.00000000E+00
  0.00000000E+00  0.00000000E+00  0.00000000E+00
  0.00000000E+00  0.00000000E+00  0.00000000E+00
  0.00000000E+00  0.00000000E+00  0.00000000E+00
  0.00000000E+00  0.00000000E+00  0.00000000E+00
  0.00000000E+00  0.00000000E+00  0.00000000E+00
  0.00000000E+00  0.00000000E+00  0.00000000E+00
  0.00000000E+00  0.00000000E+00  0.00000000E+00
  0.00000000E+00  0.00000000E+00  0.00000000E+00
  0.00000000E+00  0.00000000E+00  0.00000000E+00
  0.00000000E+00  0.00000000E+00  0.00000000E+00
  0.00000000E+00  0.00000000E+00  0.00000000E+00
  0.00000000E+00  0.00000000E+00  0.00000000E+00
  0.00000000E+00  0.00000000E+00  0.00000000E+00
  0.00000000E+00  0.00000000E+00  0.00000000E+00
  0.00000000E+00  0.00000000E+00  0.00000000E+00
  0.00000000E+00  0.00000000E+00  0.00000000E+00
  0.00000000E+00  0.00000000E+00  0.00000000E+00
  0.00000000E+00  0.00000000E+00  0.00000000E+00
  0.00000000E+00  0.00000000E+00  0.00000000E+00
  0.00000000E+00  0.00000000E+00  0.00000000E+00
  0.00000000E+00  0.00000000E+00  0.00000000E+00
  0.00000000E+00  0.00000000E+00  0.00000000E+00
  0.00000000E+00  0.00000000E+00  0.00000000E+00
  0.00000000E+00  0.00000000E+00  0.00000000E+00
  0.00000000E+00  0.00000000E+00  0.00000000E+00
  0.00000000E+00  0.00000000E+00  0.00000000E+00
  0.00000000E+00  0.00000000E+00  0.00000000E+00
  0.00000000E+00  0.00000000E+00  0.00000000E+00
  0.00000000E+00  0.00000000E+00  0.00000000E+00
  0.00000000E+00  0.00000000E+00  0.00000000E+00
  0.00000000E+00  0.00000000E+00  0.00000000E+00
  0.00000000E+00  0.00000000E+00  0.00000000E+00
  0.00000000E+00  0.00000000E+00  0.00000000E+00
  0.00000000E+00  0.00000000E+00  0.00000000E+00
  0.00000000E+00  0.00000000E+00  0.00000000E+00
  0.00000000E+00  0.00000000E+00  0.00000000E+00
  0.00000000E+00  0.00000000E+00  0.00000000E+00
  0.00000000E+00  0.00000000E+00  0.00000000E+00
  0.00000000E+00  0.00000000E+00  0.00000000E+00
  0.00000000E+00  0.00000000E+00  0.00000000E+00
  0.00000000E+00  0.00000000E+00  0.00000000E+00
  0.00000000E+00  0.00000000E+00  0.00000000E+00
  0.00000000E+00  0.00000000E+00  0.00000000E+00
  0.00000000E+00  0.00000000E+00  0.00000000E+00
  0.00000000E+00  0.00000000E+00  0.00000000E+00
  0.00000000E+00  0.00000000E+00  0.00000000E+00
  0.00000000E+00  0.00000000E+00  0.00000000E+00
  0.00000000E+00  0.00000000E+00  0.00000000E+00
  0.00000000E+00  0.00000000E+00  0.00000000E+00
  0.00000000E+00  0.00000000E+00  0.00000000E+00
  0.00000000E+00  0.00000000E+00  0.00000000E+00
  0.00000000E+00  0.00000000E+00  0.00000000E+00
  0.00000000E+00  0.00000000E+00  0.00000000E+00
  0.00000000E+00  0.00000000E+00  0.00000000E+00
  0.00000000E+00  0.00000000E+00  0.00000000E+00
  0.00000000E+00  0.00000000E+00  0.00000000E+00
  0.00000000E+00  0.00000000E+00  0.00000000E+00
  0.00000000E+00  0.00000000E+00  0.00000000E+00
  0.00000000E+00  0.00000000E+00  0.00000000E+00
  0.00000000E+00  0.00000000E+00  0.00000000E+00
  0.00000000E+00  0.00000000E+00  0.00000000E+00
  0.00000000E+00  0.00000000E+00  0.00000000E+00
  0.00000000E+00  0.00000000E+00  0.00000000E+00
  0.00000000E+00  0.00000000E+00  0.00000000E+00
  0.00000000E+00  0.00000000E+00  0.00000000E+00
  0.00000000E+00  0.00000000E+00  0.00000000E+00
  0.00000000E+00  0.00000000E+00  0.00000000E+00
  0.00000000E+00  0.00000000E+00  0.00000000E+00
  0.00000000E+00  0.00000000E+00  0.00000000E+00
  0.00000000E+00  0.00000000E+00  0.00000000E+00
  0.00000000E+00  0.00000000E+00  0.00000000E+00
  0.00000000E+00  0.00000000E+00  0.00000000E+00
  0.00000000E+00  0.00000000E+00  0.00000000E+00
  0.00000000E+00  0.00000000E+00  0.00000000E+00
  0.00000000E+00  0.00000000E+00  0.00000000E+00
  0.00000000E+00  0.00000000E+00  0.00000000E+00
  0.00000000E+00  0.00000000E+00  0.00000000E+00
  0.00000000E+00  0.00000000E+00  0.00000000E+00
  0.00000000E+00  0.00000000E+00  0.00000000E+00
  0.00000000E+00  0.00000000E+00  0.00000000E+00
  0.00000000E+00  0.00000000E+00  0.00000000E+00
  0.00000000E+00  0.00000000E+00  0.00000000E+00
  0.00000000E+00  0.00000000E+00  0.00000000E+00
  0.00000000E+00  0.00000000E+00  0.00000000E+00
  0.00000000E+00  0.00000000E+00  0.00000000E+00
  0.00000000E+00  0.00000000E+00  0.00000000E+00
  0.00000000E+00  0.00000000E+00  0.00000000E+00
  0.00000000E+00  0.00000000E+00  0.00000000E+00
  0.00000000E+00  0.00000000E+00  0.00000000E+00
  0.00000000E+00  0.00000000E+00  0.00000000E+00
  0.00000000E+00  0.00000000E+00  0.00000000E+00
  0.00000000E+00  0.00000000E+00  0.00000000E+00
  0.00000000E+00  0.00000000E+00  0.00000000E+00
  0.00000000E+00  0.00000000E+00  0.00000000E+00
  0.00000000E+00  0.00000000E+00  0.00000000E+00
  0.00000000E+00  0.00000000E+00  0.00000000E+00
  0.00000000E+00  0.00000000E+00  0.00000000E+00
  0.00000000E+00  0.00000000E+00  0.00000000E+00
  0.00000000E+00  0.00000000E+00  0.00000000E+00
  0.00000000E+00  0.00000000E+00  0.00000000E+00
  0.00000000E+00  0.00000000E+00  0.00000000E+00
  0.00000000E+00  0.00000000E+00  0.00000000E+00
  0.00000000E+00  0.00000000E+00  0.00000000E+00
  0.00000000E+00  0.00000000E+00  0.00000000E+00
  0.00000000E+00  0.00000000E+00  0.00000000E+00
  0.00000000E+00  0.00000000E+00  0.00000000E+00
  0.00000000E+00  0.00000000E+00  0.00000000E+00
  0.00000000E+00  0.00000000E+00  0.00000000E+00
  0.00000000E+00  0.00000000E+00  0.00000000E+00
  0.00000000E+00  0.00000000E+00  0.00000000E+00
  0.00000000E+00  0.00000000E+00  0.00000000E+00
  0.00000000E+00  0.00000000E+00  0.00000000E+00
  0.00000000E+00  0.00000000E+00  0.00000000E+00
  0.00000000E+00  0.00000000E+00  0.00000000E+00
  0.00000000E+00  0.00000000E+00  0.00000000E+00
  0.00000000E+00  0.00000000E+00  0.00000000E+00
