#generated using str2pos                
    1.000000000000000     
    12.8676612933203991    0.0047945588139303    0.0027472403678180
     0.0047942064173596   12.8730817622236344   -0.0014357961437996
     0.0027464672772069   -0.0014357875327593   12.8754282108966827
   Ta   W 
    51    77
Direct
  0.2503390478384133  0.2504896510172188  0.2508265004182623
  0.1213208561545697  0.1247502227895048  0.1260470046398223
  0.6242886507711696  0.1233523529882559  0.1286659574551443
  0.4997155496529630  0.5000524935912479  0.2502495749952250
  0.7489692142316982  0.5012246799625589  0.2517311879281312
  0.0001884905384163  0.4997996180048195  0.2522910919923968
  0.8751188615973947  0.3722917615837928  0.1251498848759642
  0.1262937674814861  0.6259282933151882  0.1259769144139505
  0.4998225624096121  0.7495715594451474  0.2502530249590710
  0.7493208775805908  0.7489114884160747  0.2508069393721234
  0.2502616548705446 -0.0007163613820961  0.2510642847944681
  0.8764216756423229  0.8753468590767204  0.1250321190679489
  0.7522367272307263  0.2520453590718967  0.4975568726546382
  0.6255478858811524  0.1246775027304446  0.3728863378805958
  0.2493840544414679  0.5000073188713390  0.4981646921009621
  0.7510338904371870  0.5009867800390010  0.4981922836297065
 -0.0002445475022348  0.4995128321785361  0.4988066339955558
  0.5003053096676990  0.7490271010162386  0.4989740658282330
  0.7490511768526251  0.7485938443975776  0.4983444957214810
 -0.0000179255508479  0.7498335845151723  0.4976679841344985
  0.4991611262347143 -0.0027954409274144  0.4977441517637441
  0.1269531005663214  0.1249067404684513  0.6227503496311674
  0.3724594036512778  0.1264363048594513  0.6247883146920307
  0.7525125556684682  0.2486420308073358  0.7504158646179053
  0.6242045945340732  0.1252937296370915  0.6232396467291352
  0.0005521093881315  0.2505202394033140  0.7503517300131670
  0.8760403345046510  0.1221183917731668  0.6214767574085074
  0.3754925945883778  0.3741759700703555  0.6251377096785576
  0.6215959040592183  0.3757681393191278  0.6256084837360411
  0.1262116192389238  0.6259907330533250  0.6271144440441806
  0.5001890599292111  0.7510632148350879  0.7499754440061355
  0.5007974275050440 -0.0019876567765939  0.7528504641078235
  0.3705096910447234  0.8752116866066965  0.6244152568101711
  0.0000047096526144  0.0007014182345625  0.7517719759695357
  0.8744586200363098  0.8759387951463379  0.6252158985824220
  0.2503449492455657  0.2495778196560117  0.0010276481213960
  0.4986446258523161  0.2493455610256509  0.0021332928581136
  0.7493874020884032  0.2467318371428307 -0.0001489654647956
  0.4986661330460424  0.5015836167614539  0.0039025272474878
  0.3737413422324337  0.3763763910090383  0.8719958840038857
  0.6242635248406910  0.3778570022260647  0.8726703613470314
  0.0018291336281114  0.4992355053643825  0.0019159401598280
  0.8756135738852878  0.3779464546734045  0.8760879449386260
  0.2535270461769159  0.7516829191463162  0.0015115428525534
  0.1247571674186622  0.6261104700624495  0.8738370211608596
  0.4994667656631170  0.7509283141989012  0.0013801130659248
  0.6286761933154918  0.6244890140638347  0.8740991193564124
  0.8745865259586661  0.6261349478337742  0.8741086042655252
  0.2515688506943831  0.0002461163619089  0.0013977366279914
  0.1241924741578709  0.8741430725322986  0.8744654969090851
  0.7502736906417236 -0.0001837731050759 -0.0011389950354797
  0.4978546750391670  0.2512557219460201  0.2499931071210912
  0.3769339800157743  0.1240095669939528  0.1266409281345976
  0.7507126208448959  0.2504647970811792  0.2505212527216763
  0.0005407220016582  0.2491992057866420  0.2517396955623018
  0.8762884543194656  0.1238362373969286  0.1271626129921244
  0.2509915326789550  0.4994495506466445  0.2512112656243553
  0.1245517439329726  0.3747224848519663  0.1256947481345456
  0.3739210259424984  0.3758415788451440  0.1266341473831732
  0.6260073357989728  0.3734067702378115  0.1260855262533070
  0.2506794031111727  0.7509443726409837  0.2508410132228339
  0.3721142864254273  0.6248891515198876  0.1267478737773036
  0.6264249841452287  0.6254205770219506  0.1233095668515321
  0.0001728326304445  0.7504985442963982  0.2518182841080370
  0.8764129963683230  0.6272025051098120  0.1227499850059569
  0.1226407088858272  0.8742999357613086  0.1263700946641181
  0.4981813680388668 -0.0017664805990115  0.2498991294476541
  0.3762051024718013  0.8758973504729377  0.1268377906738575
  0.7509637118756232 -0.0014003625987774  0.2499400050859157
  0.6259529251161798  0.8767424965737275  0.1250192513977057
  0.0002556506631816 -0.0001691084668181  0.2513061881613398
  0.2485906217220664  0.2510223620542650  0.4969763531455912
  0.1231599746550026  0.1244098115447883  0.3761906891325975
  0.4986933586828335  0.2506843750592228  0.4966965765591624
  0.3753418741450217  0.1257848322326827  0.3761467139624602
  0.0006984343261404  0.2512804570903029  0.4979588134896711
  0.8761705718777300  0.1238901417910563  0.3736390467180309
  0.1255862172404907  0.3730671270656651  0.3752310909223330
  0.4991450186188295  0.5019722125794044  0.4974933136534205
  0.3748780915171487  0.3744029005515555  0.3761288988062644
  0.6227066141966394  0.3726860475034101  0.3755081228066729
  0.8763814783451743  0.3716052568765352  0.3734726484789346
  0.2495898850336813  0.7498394279397858  0.4980258047421519
  0.1270105857614479  0.6270750556282720  0.3733553342576196
  0.3728517272964035  0.6245986520607241  0.3752067917777479
  0.6233000930402014  0.6240498983372161  0.3760129761038571
  0.8763498945363979  0.6262745705273723  0.3740241475582708
  0.2485947235674504 -0.0007756950320761  0.4969782335157946
  0.1247880881869742  0.8753695747994499  0.3750863927094288
  0.3723643755497048  0.8745860435982526  0.3749832035341500
  0.7500891029227822 -0.0019529026283298  0.4976534828431143
  0.6256623700857246  0.8774887961384370  0.3737200495449631
  0.0011615011068317 -0.0009642355997540  0.4968549120669132
  0.8765474606927737  0.8780115088154594  0.3734644052589004
  0.2473597393837556  0.2505796384836282  0.7513992124726845
  0.4995723609424496  0.2475667150462394  0.7520009356080768
  0.2497623920977477  0.5004404747996603  0.7490114583275087
  0.1264589792227986  0.3743602183862587  0.6252240864803473
  0.4986196604234384  0.5036452367240634  0.7486200151277485
  0.7512487124985278  0.5013950914076136  0.7462245971718547
  0.0008356088859284  0.4982905786599605  0.7477700787585437
  0.8759737624005712  0.3758979030423599  0.6251867747819033
  0.2517667480065279  0.7500838365397766  0.7498473002445107
  0.3735201665283727  0.6242443099157543  0.6250233038334995
  0.7490287640006833  0.7512670810702040  0.7485363749408307
  0.6248086031966420  0.6231979079835916  0.6267924499624182
 -0.0007093728240446  0.7513053503290794  0.7482521186357171
  0.8757453223161802  0.6262027285583347  0.6280457683084001
  0.2498510122854667  0.0002360820532287  0.7518597884899131
  0.1250697727742672  0.8750851692950748  0.6246753769160389
  0.7491012480829073 -0.0009856018308329  0.7524930556489227
  0.6274158795299738  0.8753324385840835  0.6255003559923331
  0.1252748303040046  0.1246813176968867  0.8754224663816642
  0.3749443065510820  0.1256370182365651  0.8737644375993485
  0.6241124335733557  0.1236913776389689  0.8751095240152843
  0.0011652445626557  0.2489807183750072 -0.0002998544136481
  0.8762275230286567  0.1236387054913521  0.8760592706764951
  0.2507566820101754  0.4996437975591384  0.0010247150598797
  0.1263865562752402  0.3761720381528027  0.8745667240386501
  0.7494212010256364  0.5008782149529888  0.0033099684020359
  0.3738043675975094  0.6234978710038417  0.8735957782774462
  0.7490505961451954  0.7519013533152032  0.0011275431956338
 -0.0002385667834611  0.7511493732809337  0.0015032340813189
  0.4997500079753719 -0.0009097848999370  0.0000882784038360
  0.3741768962094066  0.8758929544850600  0.8748589018734503
  0.6272399404858088  0.8743237334440730  0.8756994752865863
 -0.0007831205718214  0.0007317667259098  0.0000785863649000
  0.8757735887704051  0.8729167639485644  0.8755078160812427
 
  0.00000000E+00  0.00000000E+00  0.00000000E+00
  0.00000000E+00  0.00000000E+00  0.00000000E+00
  0.00000000E+00  0.00000000E+00  0.00000000E+00
  0.00000000E+00  0.00000000E+00  0.00000000E+00
  0.00000000E+00  0.00000000E+00  0.00000000E+00
  0.00000000E+00  0.00000000E+00  0.00000000E+00
  0.00000000E+00  0.00000000E+00  0.00000000E+00
  0.00000000E+00  0.00000000E+00  0.00000000E+00
  0.00000000E+00  0.00000000E+00  0.00000000E+00
  0.00000000E+00  0.00000000E+00  0.00000000E+00
  0.00000000E+00  0.00000000E+00  0.00000000E+00
  0.00000000E+00  0.00000000E+00  0.00000000E+00
  0.00000000E+00  0.00000000E+00  0.00000000E+00
  0.00000000E+00  0.00000000E+00  0.00000000E+00
  0.00000000E+00  0.00000000E+00  0.00000000E+00
  0.00000000E+00  0.00000000E+00  0.00000000E+00
  0.00000000E+00  0.00000000E+00  0.00000000E+00
  0.00000000E+00  0.00000000E+00  0.00000000E+00
  0.00000000E+00  0.00000000E+00  0.00000000E+00
  0.00000000E+00  0.00000000E+00  0.00000000E+00
  0.00000000E+00  0.00000000E+00  0.00000000E+00
  0.00000000E+00  0.00000000E+00  0.00000000E+00
  0.00000000E+00  0.00000000E+00  0.00000000E+00
  0.00000000E+00  0.00000000E+00  0.00000000E+00
  0.00000000E+00  0.00000000E+00  0.00000000E+00
  0.00000000E+00  0.00000000E+00  0.00000000E+00
  0.00000000E+00  0.00000000E+00  0.00000000E+00
  0.00000000E+00  0.00000000E+00  0.00000000E+00
  0.00000000E+00  0.00000000E+00  0.00000000E+00
  0.00000000E+00  0.00000000E+00  0.00000000E+00
  0.00000000E+00  0.00000000E+00  0.00000000E+00
  0.00000000E+00  0.00000000E+00  0.00000000E+00
  0.00000000E+00  0.00000000E+00  0.00000000E+00
  0.00000000E+00  0.00000000E+00  0.00000000E+00
  0.00000000E+00  0.00000000E+00  0.00000000E+00
  0.00000000E+00  0.00000000E+00  0.00000000E+00
  0.00000000E+00  0.00000000E+00  0.00000000E+00
  0.00000000E+00  0.00000000E+00  0.00000000E+00
  0.00000000E+00  0.00000000E+00  0.00000000E+00
  0.00000000E+00  0.00000000E+00  0.00000000E+00
  0.00000000E+00  0.00000000E+00  0.00000000E+00
  0.00000000E+00  0.00000000E+00  0.00000000E+00
  0.00000000E+00  0.00000000E+00  0.00000000E+00
  0.00000000E+00  0.00000000E+00  0.00000000E+00
  0.00000000E+00  0.00000000E+00  0.00000000E+00
  0.00000000E+00  0.00000000E+00  0.00000000E+00
  0.00000000E+00  0.00000000E+00  0.00000000E+00
  0.00000000E+00  0.00000000E+00  0.00000000E+00
  0.00000000E+00  0.00000000E+00  0.00000000E+00
  0.00000000E+00  0.00000000E+00  0.00000000E+00
  0.00000000E+00  0.00000000E+00  0.00000000E+00
  0.00000000E+00  0.00000000E+00  0.00000000E+00
  0.00000000E+00  0.00000000E+00  0.00000000E+00
  0.00000000E+00  0.00000000E+00  0.00000000E+00
  0.00000000E+00  0.00000000E+00  0.00000000E+00
  0.00000000E+00  0.00000000E+00  0.00000000E+00
  0.00000000E+00  0.00000000E+00  0.00000000E+00
  0.00000000E+00  0.00000000E+00  0.00000000E+00
  0.00000000E+00  0.00000000E+00  0.00000000E+00
  0.00000000E+00  0.00000000E+00  0.00000000E+00
  0.00000000E+00  0.00000000E+00  0.00000000E+00
  0.00000000E+00  0.00000000E+00  0.00000000E+00
  0.00000000E+00  0.00000000E+00  0.00000000E+00
  0.00000000E+00  0.00000000E+00  0.00000000E+00
  0.00000000E+00  0.00000000E+00  0.00000000E+00
  0.00000000E+00  0.00000000E+00  0.00000000E+00
  0.00000000E+00  0.00000000E+00  0.00000000E+00
  0.00000000E+00  0.00000000E+00  0.00000000E+00
  0.00000000E+00  0.00000000E+00  0.00000000E+00
  0.00000000E+00  0.00000000E+00  0.00000000E+00
  0.00000000E+00  0.00000000E+00  0.00000000E+00
  0.00000000E+00  0.00000000E+00  0.00000000E+00
  0.00000000E+00  0.00000000E+00  0.00000000E+00
  0.00000000E+00  0.00000000E+00  0.00000000E+00
  0.00000000E+00  0.00000000E+00  0.00000000E+00
  0.00000000E+00  0.00000000E+00  0.00000000E+00
  0.00000000E+00  0.00000000E+00  0.00000000E+00
  0.00000000E+00  0.00000000E+00  0.00000000E+00
  0.00000000E+00  0.00000000E+00  0.00000000E+00
  0.00000000E+00  0.00000000E+00  0.00000000E+00
  0.00000000E+00  0.00000000E+00  0.00000000E+00
  0.00000000E+00  0.00000000E+00  0.00000000E+00
  0.00000000E+00  0.00000000E+00  0.00000000E+00
  0.00000000E+00  0.00000000E+00  0.00000000E+00
  0.00000000E+00  0.00000000E+00  0.00000000E+00
  0.00000000E+00  0.00000000E+00  0.00000000E+00
  0.00000000E+00  0.00000000E+00  0.00000000E+00
  0.00000000E+00  0.00000000E+00  0.00000000E+00
  0.00000000E+00  0.00000000E+00  0.00000000E+00
  0.00000000E+00  0.00000000E+00  0.00000000E+00
  0.00000000E+00  0.00000000E+00  0.00000000E+00
  0.00000000E+00  0.00000000E+00  0.00000000E+00
  0.00000000E+00  0.00000000E+00  0.00000000E+00
  0.00000000E+00  0.00000000E+00  0.00000000E+00
  0.00000000E+00  0.00000000E+00  0.00000000E+00
  0.00000000E+00  0.00000000E+00  0.00000000E+00
  0.00000000E+00  0.00000000E+00  0.00000000E+00
  0.00000000E+00  0.00000000E+00  0.00000000E+00
  0.00000000E+00  0.00000000E+00  0.00000000E+00
  0.00000000E+00  0.00000000E+00  0.00000000E+00
  0.00000000E+00  0.00000000E+00  0.00000000E+00
  0.00000000E+00  0.00000000E+00  0.00000000E+00
  0.00000000E+00  0.00000000E+00  0.00000000E+00
  0.00000000E+00  0.00000000E+00  0.00000000E+00
  0.00000000E+00  0.00000000E+00  0.00000000E+00
  0.00000000E+00  0.00000000E+00  0.00000000E+00
  0.00000000E+00  0.00000000E+00  0.00000000E+00
  0.00000000E+00  0.00000000E+00  0.00000000E+00
  0.00000000E+00  0.00000000E+00  0.00000000E+00
  0.00000000E+00  0.00000000E+00  0.00000000E+00
  0.00000000E+00  0.00000000E+00  0.00000000E+00
  0.00000000E+00  0.00000000E+00  0.00000000E+00
  0.00000000E+00  0.00000000E+00  0.00000000E+00
  0.00000000E+00  0.00000000E+00  0.00000000E+00
  0.00000000E+00  0.00000000E+00  0.00000000E+00
  0.00000000E+00  0.00000000E+00  0.00000000E+00
  0.00000000E+00  0.00000000E+00  0.00000000E+00
  0.00000000E+00  0.00000000E+00  0.00000000E+00
  0.00000000E+00  0.00000000E+00  0.00000000E+00
  0.00000000E+00  0.00000000E+00  0.00000000E+00
  0.00000000E+00  0.00000000E+00  0.00000000E+00
  0.00000000E+00  0.00000000E+00  0.00000000E+00
  0.00000000E+00  0.00000000E+00  0.00000000E+00
  0.00000000E+00  0.00000000E+00  0.00000000E+00
  0.00000000E+00  0.00000000E+00  0.00000000E+00
  0.00000000E+00  0.00000000E+00  0.00000000E+00
  0.00000000E+00  0.00000000E+00  0.00000000E+00
  0.00000000E+00  0.00000000E+00  0.00000000E+00
