#generated using str2pos                
    1.000000000000000     
    12.8973823557813763    0.0011860897982817   -0.0018032676320785
     0.0011876873115280   12.9130140385264109   -0.0123731281639841
    -0.0018046892416517   -0.0123778423402243   12.9060688211374917
   Ta   W 
    58    70
Direct
  0.2497065029089598  0.2515568503618329  0.2483853489004579
  0.6269774938594084  0.1253217412924823  0.1253730574331472
  0.0001678906088838  0.2512998563017978  0.2477110357427179
  0.2488190667070117  0.5016610023514739  0.2477489967125641
  0.6261960294086065  0.3746476960104226  0.1284538040194293
  0.0029509222200360  0.4996167885014663  0.2475603230743723
  0.2519563084794788  0.7468796223721107  0.2504872407050795
  0.1232094985945548  0.8756859355330271  0.1258692375947776
  0.4994769614387263  0.0005342234710976  0.2543847692709650
  0.3763369206109726  0.8741203825979565  0.1236708644378060
  0.6264269254527634  0.8744006197660313  0.1241367954168862
  0.8741109363336643  0.8759153667339445  0.1264631445181263
  0.2504223974689111  0.2500041618588784  0.5015158267490019
  0.1258089263433004  0.1210447586160020  0.3740122198523003
  0.5003184714659319  0.2481867588283671  0.5029866122136192
  0.7493950199010828  0.2479112361721106  0.5020550312098803
 -0.0004206695012018  0.2503779356441329  0.5010674895139094
  0.3786546906105998  0.3779782789256089  0.3751485642966048
  0.6242383515786638  0.3782536173085714  0.3730664215418879
  0.0007468696146363  0.4990486272542603  0.5002009389248739
  0.8703427127191768  0.3774556198143942  0.3737476866896020
  0.2505031591876989  0.7507561543822683  0.4966212827402307
  0.6256426351598215  0.6254542667613371  0.3750321430944991
  0.8720360796842241  0.6274607469832661  0.3743825501950807
  0.1229912437355690  0.8769067132594697  0.3728287758563800
  0.5002869660905240  0.0018053485204785  0.4979852338148237
  0.7490801608527354  0.0018582278934492  0.5002759728834144
 -0.0023184379343700  0.0008896486051725  0.5036948388165655
  0.8747523123502048  0.8725966736879583  0.3726166735927267
  0.2505960522663369  0.2506054166603983  0.7491426295475266
  0.4980818805912210  0.2504174470738113  0.7489864007532437
  0.7505312098600967  0.2508735305833297  0.7465735760452772
 -0.0000320043476435  0.2507612469715300  0.7484427353453426
  0.2506046458146138  0.4979495176212024  0.7521707915923894
  0.5004533093381018  0.4989978412997266  0.7506295079891375
 -0.0004660581778632  0.4993058653351461  0.7502819545031912
  0.1274005378954687  0.6261411752938059  0.6234862366876746
  0.3764575747930962  0.6271277335787829  0.6241813938762601
  0.7524689265207205  0.7469131709781912  0.7503732901099912
 -0.0015114044388552  0.7503092041049404  0.7511765892731213
  0.3756047557624305  0.8742395317031910  0.6273640062665427
  0.6232983223605851  0.8727278779554263  0.6269103062635384
 -0.0001834653286218 -0.0034392846480633  0.7477252590912778
  0.2506004266716786  0.2510609541342207  0.0008087630530320
  0.1236683494791667  0.1218944775509919  0.8750812471589177
  0.4952686579975263  0.2512866798981651 -0.0001478582220964
  0.6267766561006284  0.1208255167550148  0.8777433529210259
  0.0013450623596891  0.2521730537240031  0.0017933337225517
  0.8725184346665440  0.1224579246077411  0.8781001143719014
  0.2500522977595161  0.4996572429063343 -0.0001556329774639
  0.4986812565151630  0.5017555901720919 -0.0004294988760760
  0.7520407069840456  0.5024771760302439 -0.0005145613505046
  0.6277120788854825  0.3740678967299166  0.8763583347901097
  0.0000857058845867  0.5001906058599206 -0.0002967379293855
 -0.0002255016160894  0.7474954780916878 -0.0033349705203840
  0.2495230202023888  0.0017678008933040  0.0000091323533876
  0.3764276997495504  0.8734132423710442  0.8740943381401781
  0.6232359508510213  0.8757038859230728  0.8762369599102392
  0.1236730215317258  0.1216982798125404  0.1260863238424812
  0.4984945245643062  0.2483679214837843  0.2506645425471742
  0.3762096621978249  0.1240232767138335  0.1264043890515806
  0.7519960883373460  0.2487256522630985  0.2511628789555504
  0.8731163735975583  0.1229080576479843  0.1245271430983274
  0.1252062597392715  0.3753944588113967  0.1244376258259260
  0.4983180696969241  0.5032244464911853  0.2483839971071743
  0.3778732762517060  0.3762087077139778  0.1281530604769740
  0.7509910689727497  0.5017561275525604  0.2468617246688529
  0.8719377624035854  0.3746191548923443  0.1257889493684580
  0.1253870459397159  0.6277830576706034  0.1238031611085936
  0.4994058820905765  0.7502435370775390  0.2503832643241634
  0.3775140676926522  0.6274147567643057  0.1245489876059032
  0.7481387843306905  0.7498140036162636  0.2489356024859649
  0.6250082902498996  0.6269828244358600  0.1273028180112838
  0.0009306034134134  0.7471766053076740  0.2475036596237349
  0.8730072381171350  0.6276564628941097  0.1262472984506274
  0.2524329019066979  0.0016402213743792  0.2496994231050808
  0.7490478567440513  0.0017449023652591  0.2523750782074823
 -0.0014414391739109  0.0027911988929204  0.2495882735531576
  0.3738144727245253  0.1252452610182710  0.3749631046045701
  0.6257237912936846  0.1264904928025898  0.3726993782078400
  0.8744470822204713  0.1240537837358899  0.3717348244163071
  0.2497787006170110  0.4997401773901962  0.4985802987032020
  0.1268674746359718  0.3755404407206258  0.3756621493529507
  0.5010282505449504  0.5007406802508979  0.5019307375047648
  0.7497958005822324  0.5004496915863220  0.5034969562531920
  0.1238050019368481  0.6274465514061721  0.3755203902903552
  0.5000760733731029  0.7505697362850595  0.4978825885397408
  0.3790354476969751  0.6244802605482672  0.3756097623690387
  0.7491658295444941  0.7504465928860536  0.5020018489576706
  0.0002504675543303  0.7501511851568546  0.5015540834539267
  0.2506380646548961  0.0004455203312218  0.5012301643144241
  0.3748124251924129  0.8748837267016135  0.3754314351855796
  0.6258457161052937  0.8722470113124492  0.3745272373337737
  0.1269972310289036  0.1222808550543482  0.6247648091683067
  0.3736031800229048  0.1212279671980214  0.6260249300490328
  0.6237757543551011  0.1222740175660511  0.6277805072113364
  0.8738937180331031  0.1233882712550294  0.6267159174956943
  0.1260477756830578  0.3764457455294929  0.6239746544534353
  0.3756138876972026  0.3777231697220912  0.6217376579339523
  0.7508228819107905  0.5006476259318449  0.7502175985872531
  0.6258191109467490  0.3783686848538254  0.6238946193000978
  0.8731327510388524  0.3772608079992371  0.6245621896871327
  0.2477642245665976  0.7496723122240774  0.7509567405814939
  0.5018142763578683  0.7467058032259931  0.7513668103987837
  0.6247321274662263  0.6254765821069508  0.6227475694084968
  0.8732210142109847  0.6248521122678440  0.6223635721681071
  0.2484233592780670  0.0000457307837121  0.7499005524025014
  0.1267651733700833  0.8738157213963618  0.6238873319470503
  0.4985079975231956  0.0020045327623845  0.7488219977639927
  0.7516761024099984 -0.0020206476921582  0.7484875635672682
  0.8730817418796794  0.8727626658178610  0.6236944771295381
  0.3756599227876380  0.1206690221963825  0.8740953663534442
  0.7528755629129200  0.2514106675593886  0.0013778198333922
  0.1245675375325006  0.3743578627563954  0.8745736059730469
  0.3755389062163907  0.3755847548771922  0.8751238599983859
  0.8731169354614005  0.3742839886114489  0.8749292772398950
  0.2490096566633602  0.7476499138660996 -0.0008782172860121
  0.1271365231962424  0.6266737893288208  0.8739264230463007
  0.5003325360199399  0.7464447538194080  0.0007217306363807
  0.3755369845516853  0.6292065962002834  0.8748126623975140
  0.7510193564006252  0.7470406368753000 -0.0014089034188780
  0.6248432767800356  0.6273113319278399  0.8752501038769108
  0.8734724735879127  0.6247262038003085  0.8744355329801559
  0.1269986382067361  0.8746632417302412  0.8753201123001371
  0.4978043094400921  0.0014991033459348  0.0015752628262100
  0.7516805552710847 -0.0012533418712505  0.0013110121144009
  0.0001528258770575 -0.0011050499097828 -0.0005629213012453
  0.8723983226827274  0.8760131410003809  0.8775407385689811
 
  0.00000000E+00  0.00000000E+00  0.00000000E+00
  0.00000000E+00  0.00000000E+00  0.00000000E+00
  0.00000000E+00  0.00000000E+00  0.00000000E+00
  0.00000000E+00  0.00000000E+00  0.00000000E+00
  0.00000000E+00  0.00000000E+00  0.00000000E+00
  0.00000000E+00  0.00000000E+00  0.00000000E+00
  0.00000000E+00  0.00000000E+00  0.00000000E+00
  0.00000000E+00  0.00000000E+00  0.00000000E+00
  0.00000000E+00  0.00000000E+00  0.00000000E+00
  0.00000000E+00  0.00000000E+00  0.00000000E+00
  0.00000000E+00  0.00000000E+00  0.00000000E+00
  0.00000000E+00  0.00000000E+00  0.00000000E+00
  0.00000000E+00  0.00000000E+00  0.00000000E+00
  0.00000000E+00  0.00000000E+00  0.00000000E+00
  0.00000000E+00  0.00000000E+00  0.00000000E+00
  0.00000000E+00  0.00000000E+00  0.00000000E+00
  0.00000000E+00  0.00000000E+00  0.00000000E+00
  0.00000000E+00  0.00000000E+00  0.00000000E+00
  0.00000000E+00  0.00000000E+00  0.00000000E+00
  0.00000000E+00  0.00000000E+00  0.00000000E+00
  0.00000000E+00  0.00000000E+00  0.00000000E+00
  0.00000000E+00  0.00000000E+00  0.00000000E+00
  0.00000000E+00  0.00000000E+00  0.00000000E+00
  0.00000000E+00  0.00000000E+00  0.00000000E+00
  0.00000000E+00  0.00000000E+00  0.00000000E+00
  0.00000000E+00  0.00000000E+00  0.00000000E+00
  0.00000000E+00  0.00000000E+00  0.00000000E+00
  0.00000000E+00  0.00000000E+00  0.00000000E+00
  0.00000000E+00  0.00000000E+00  0.00000000E+00
  0.00000000E+00  0.00000000E+00  0.00000000E+00
  0.00000000E+00  0.00000000E+00  0.00000000E+00
  0.00000000E+00  0.00000000E+00  0.00000000E+00
  0.00000000E+00  0.00000000E+00  0.00000000E+00
  0.00000000E+00  0.00000000E+00  0.00000000E+00
  0.00000000E+00  0.00000000E+00  0.00000000E+00
  0.00000000E+00  0.00000000E+00  0.00000000E+00
  0.00000000E+00  0.00000000E+00  0.00000000E+00
  0.00000000E+00  0.00000000E+00  0.00000000E+00
  0.00000000E+00  0.00000000E+00  0.00000000E+00
  0.00000000E+00  0.00000000E+00  0.00000000E+00
  0.00000000E+00  0.00000000E+00  0.00000000E+00
  0.00000000E+00  0.00000000E+00  0.00000000E+00
  0.00000000E+00  0.00000000E+00  0.00000000E+00
  0.00000000E+00  0.00000000E+00  0.00000000E+00
  0.00000000E+00  0.00000000E+00  0.00000000E+00
  0.00000000E+00  0.00000000E+00  0.00000000E+00
  0.00000000E+00  0.00000000E+00  0.00000000E+00
  0.00000000E+00  0.00000000E+00  0.00000000E+00
  0.00000000E+00  0.00000000E+00  0.00000000E+00
  0.00000000E+00  0.00000000E+00  0.00000000E+00
  0.00000000E+00  0.00000000E+00  0.00000000E+00
  0.00000000E+00  0.00000000E+00  0.00000000E+00
  0.00000000E+00  0.00000000E+00  0.00000000E+00
  0.00000000E+00  0.00000000E+00  0.00000000E+00
  0.00000000E+00  0.00000000E+00  0.00000000E+00
  0.00000000E+00  0.00000000E+00  0.00000000E+00
  0.00000000E+00  0.00000000E+00  0.00000000E+00
  0.00000000E+00  0.00000000E+00  0.00000000E+00
  0.00000000E+00  0.00000000E+00  0.00000000E+00
  0.00000000E+00  0.00000000E+00  0.00000000E+00
  0.00000000E+00  0.00000000E+00  0.00000000E+00
  0.00000000E+00  0.00000000E+00  0.00000000E+00
  0.00000000E+00  0.00000000E+00  0.00000000E+00
  0.00000000E+00  0.00000000E+00  0.00000000E+00
  0.00000000E+00  0.00000000E+00  0.00000000E+00
  0.00000000E+00  0.00000000E+00  0.00000000E+00
  0.00000000E+00  0.00000000E+00  0.00000000E+00
  0.00000000E+00  0.00000000E+00  0.00000000E+00
  0.00000000E+00  0.00000000E+00  0.00000000E+00
  0.00000000E+00  0.00000000E+00  0.00000000E+00
  0.00000000E+00  0.00000000E+00  0.00000000E+00
  0.00000000E+00  0.00000000E+00  0.00000000E+00
  0.00000000E+00  0.00000000E+00  0.00000000E+00
  0.00000000E+00  0.00000000E+00  0.00000000E+00
  0.00000000E+00  0.00000000E+00  0.00000000E+00
  0.00000000E+00  0.00000000E+00  0.00000000E+00
  0.00000000E+00  0.00000000E+00  0.00000000E+00
  0.00000000E+00  0.00000000E+00  0.00000000E+00
  0.00000000E+00  0.00000000E+00  0.00000000E+00
  0.00000000E+00  0.00000000E+00  0.00000000E+00
  0.00000000E+00  0.00000000E+00  0.00000000E+00
  0.00000000E+00  0.00000000E+00  0.00000000E+00
  0.00000000E+00  0.00000000E+00  0.00000000E+00
  0.00000000E+00  0.00000000E+00  0.00000000E+00
  0.00000000E+00  0.00000000E+00  0.00000000E+00
  0.00000000E+00  0.00000000E+00  0.00000000E+00
  0.00000000E+00  0.00000000E+00  0.00000000E+00
  0.00000000E+00  0.00000000E+00  0.00000000E+00
  0.00000000E+00  0.00000000E+00  0.00000000E+00
  0.00000000E+00  0.00000000E+00  0.00000000E+00
  0.00000000E+00  0.00000000E+00  0.00000000E+00
  0.00000000E+00  0.00000000E+00  0.00000000E+00
  0.00000000E+00  0.00000000E+00  0.00000000E+00
  0.00000000E+00  0.00000000E+00  0.00000000E+00
  0.00000000E+00  0.00000000E+00  0.00000000E+00
  0.00000000E+00  0.00000000E+00  0.00000000E+00
  0.00000000E+00  0.00000000E+00  0.00000000E+00
  0.00000000E+00  0.00000000E+00  0.00000000E+00
  0.00000000E+00  0.00000000E+00  0.00000000E+00
  0.00000000E+00  0.00000000E+00  0.00000000E+00
  0.00000000E+00  0.00000000E+00  0.00000000E+00
  0.00000000E+00  0.00000000E+00  0.00000000E+00
  0.00000000E+00  0.00000000E+00  0.00000000E+00
  0.00000000E+00  0.00000000E+00  0.00000000E+00
  0.00000000E+00  0.00000000E+00  0.00000000E+00
  0.00000000E+00  0.00000000E+00  0.00000000E+00
  0.00000000E+00  0.00000000E+00  0.00000000E+00
  0.00000000E+00  0.00000000E+00  0.00000000E+00
  0.00000000E+00  0.00000000E+00  0.00000000E+00
  0.00000000E+00  0.00000000E+00  0.00000000E+00
  0.00000000E+00  0.00000000E+00  0.00000000E+00
  0.00000000E+00  0.00000000E+00  0.00000000E+00
  0.00000000E+00  0.00000000E+00  0.00000000E+00
  0.00000000E+00  0.00000000E+00  0.00000000E+00
  0.00000000E+00  0.00000000E+00  0.00000000E+00
  0.00000000E+00  0.00000000E+00  0.00000000E+00
  0.00000000E+00  0.00000000E+00  0.00000000E+00
  0.00000000E+00  0.00000000E+00  0.00000000E+00
  0.00000000E+00  0.00000000E+00  0.00000000E+00
  0.00000000E+00  0.00000000E+00  0.00000000E+00
  0.00000000E+00  0.00000000E+00  0.00000000E+00
  0.00000000E+00  0.00000000E+00  0.00000000E+00
  0.00000000E+00  0.00000000E+00  0.00000000E+00
  0.00000000E+00  0.00000000E+00  0.00000000E+00
  0.00000000E+00  0.00000000E+00  0.00000000E+00
  0.00000000E+00  0.00000000E+00  0.00000000E+00
  0.00000000E+00  0.00000000E+00  0.00000000E+00
  0.00000000E+00  0.00000000E+00  0.00000000E+00
