#BCC aalvarado POSCAR generator         
    12.76000000000000     
     1.0084600384253644    0.0001684292030206    0.0001454753596310
     0.0001683850879119    1.0087602411693131   -0.0003775355829081
     0.0001454781289099   -0.0003774216423779    1.0088721677392181
   Ta   W 
    51    77
Direct
  0.5002721608192073  0.5003214243683578  0.5026665618301135
  0.3720692256747733  0.3743046795638302  0.6231977533517170
  0.3733272681080234  0.6284921069439489  0.3752684143695524
  0.7524359441687795  0.7506300669968445  0.7506334089233254
  0.7526283611938770  0.5001473369900028  0.4992355712878314
  0.4997896731089313  0.4972322406504294  0.7499742705153147
  0.7500897498731044  0.7499593966091552  0.2481445281132091
  0.7521033897238588  0.5009829439467681  0.2476098837940650
  0.5007220861623870  0.5014671636293586  0.2471689154584210
  0.2479336743247399  0.2484881927064718  0.2482066588785919
  0.2474889506134423  0.5004792548219528  0.2471158143519213
  0.4996092812799987  0.2494425985523152  0.7525877000549321
  0.2499585511459025  0.2498938567373452  0.7521748126090493
  0.2503400959895106  0.7484531429228594  0.7522241075047567
  0.8746912028258311  0.8760737753932011  0.8757466537820653
  0.6250182328542661  0.6254232558690813  0.8749192729366033
  0.6250977832309468  0.8748319434728987  0.6247336292791018
  0.8741414584313361  0.8742724210905958  0.3775192680535008
  0.8771723193368729  0.3746250357556740  0.6261438046149941
  0.8773568252389918  0.3760529521556644  0.8714803571603785
  0.3741789062180382  0.6243594835958900  0.8768929045741397
  0.3738086618925803  0.8740759160899964  0.6244249210987681
  0.3743943570568410  0.3744102224980861  0.1228898002627871
  0.6233617297998244  0.1231300173929262  0.1257352828743071
  0.8729419436643829  0.1266167828244927  0.3763185775839117
  0.6244317314737499  0.1265659923773456  0.3745124466383098
  0.6279131453448706  0.1251382139836739  0.6238578348372948
  0.1268400710251741  0.1250848196385790  0.3766979029651967
  0.1253120863622263  0.1262159345362370  0.6245978800238927
  0.1253898264864222  0.6248871546693899  0.3768379133685453
  0.1236458316619155  0.6237896360303409  0.6244632890601348
  0.1263495596866596  0.8736828613531284  0.6251281497438854
  0.1254969229274261  0.8757935860837958  0.8768215828410506
 -0.0017814429103697  0.0021911535001960  0.7503638428789793
  0.0005046406099548  0.7480192397367231  0.0022486923315335
 -0.0006489159794046 -0.0009559267868653  0.5015252856045421
  0.7511205545234382  0.4998608697484169  0.0019641876365687
  0.4997080294723447  0.7524211300050677  0.0027239752313071
  0.4975675681183766 -0.0000165734354582  0.4980359240623023
  0.4992172217911226  0.0018675199238778  0.7529800316335511
  0.0013192482981455 -0.0007774544262086  0.2473653637449927
  0.0003150190461055  0.7494663839237061  0.2476707515649475
  0.7495417233070861 -0.0027270644937607  0.2470630027601336
  0.0005848340622086  0.2517040029638682  0.2473425110960520
  0.0011225847716902  0.2497103613689831  0.0008458540923197
  0.7503312434944375  0.2500081255481180 -0.0011408820456713
  0.4997973618594788  0.2490070652234351 -0.0023552095934918
  0.6261092604708530  0.6275763175372689  0.6256861502507813
  0.6234806506360044  0.6284512723539519  0.3760656865592306
  0.6249876683421927  0.3708172376534311  0.3744582916452278
  0.3744775529576033  0.3726601136399239  0.3758402182030851
  0.6274374846389263  0.3728347062656123  0.6247999849448079
  0.3733325804254015  0.6255443333896594  0.6253875597089766
  0.7518047502835157  0.7499157659549981  0.5002895664267769
  0.7511410753100344  0.5002624571983690  0.7506172531351013
  0.4989043546168466  0.7519999189356571  0.4985826936292351
  0.4992302015175317  0.7513919748357213  0.7526426733648244
  0.4994962850666653  0.7523348927680209  0.2477029138639430
  0.7522387830649594  0.2513730861954662  0.2475254522096150
  0.4983300691348262  0.2483796652444276  0.2475256411395121
  0.7514782396844530  0.2513033685104812  0.5013145505119815
  0.4987999356396909  0.2483972597721543  0.5011642187106496
  0.2493366191168861  0.2493674889452136  0.5002476571039751
  0.2479814817945928  0.4988742432870758  0.5007565081473593
  0.7498619265129428  0.2492553206522309  0.7508854139540143
  0.2486457946613605  0.4987455370698653  0.7519703208371370
  0.2498774902478717  0.7524353561549207  0.2484484609474417
  0.2502423390479099  0.7507949996688977  0.4992442053053166
  0.8743768084076352  0.8742008328398964  0.6251323812014661
  0.8775978674714165  0.6243087164995347  0.6256099338310896
  0.8765205869320163  0.6243329303760345  0.8743068924719305
  0.6259863266682639  0.8759319504870248  0.8762607977105377
  0.8774580137560206  0.6250219772844351  0.3764392106491574
  0.6233879571397305  0.8752217909480499  0.3750908096215826
  0.8761489932886642  0.3743168099279054  0.3763800921534745
  0.6267786371573271  0.3759030691319841  0.8742285735071167
  0.3725197777671949  0.3761500585283807  0.8763709171387152
  0.3739932666222710  0.8747743024904363  0.3734858054307158
  0.3741023356444164  0.8757122358943855  0.8774390524669918
  0.8744290460821369  0.8753046190533849  0.1219808072563935
  0.8768160867797249  0.6240880452279333  0.1237861967097765
  0.6242542934066615  0.6269819412936308  0.1239667075563047
  0.6227388244846640  0.8763088983050042  0.1240297948900150
  0.8767517482001908  0.3760161192701521  0.1248695921438030
  0.6237866257404975  0.3733766082590136  0.1254732097913968
  0.3735108793593237  0.6267327690202492  0.1240552087137191
  0.3740591658756042  0.8762126172548045  0.1263854896177622
  0.8740419177813923  0.1243234873663281  0.1234087967597616
  0.3747007131730065  0.1225435368210538  0.1246835083980252
  0.3748009450436884  0.1237596712874789  0.3736912418537385
  0.8737400169470373  0.1274803045681998  0.6254731164539959
  0.3732904523476272  0.1246963670560176  0.6239422085504303
  0.1269756023620557  0.1229276155820515  0.1230072370310330
  0.1253683254096306  0.3766097449835648  0.1223066438293276
  0.1237907423563248  0.3761309403341292  0.3767112410502022
  0.1238777002344532  0.3758984504180946  0.6250449671842360
  0.1255375730949158  0.6244303564007819  0.1242581595002965
  0.8747888258620331  0.1245225117235074  0.8740556011404329
  0.6264590506426384  0.1233930290019319  0.8751514077001545
  0.3731727418967373  0.1232021937848632  0.8776571897994924
  0.1258090352517465  0.1248245493591799  0.8757688963383392
  0.1245895322825530  0.3762119587463962  0.8747472056794825
  0.1253995256376174  0.6228335971178560  0.8751455757375902
  0.1284045287069916  0.8752506168246196  0.1240383877316369
  0.1274089904183054  0.8736739219204301  0.3750327053598299
  0.0005969963332509  0.0013878370230770  0.0007526249908775
 -0.0010203074873602  0.7480475751348584  0.7512890737811334
  0.7501168622654848  0.7503856143191497  0.0012471502922652
  0.7504130634312681  0.0008778958840465  0.7519741225115030
  0.7497038172255280  0.0003794333562010 -0.0001113726415595
 -0.0012068554294903  0.7493319766611392  0.4996948452179422
  0.7501917453312896 -0.0006621720915263  0.5006935603731557
 -0.0006649128561399  0.4995327972042877  0.4997422071154504
  0.0014755862007040  0.5002529904342466  0.7507565838265150
  0.0014426619317459  0.5007397561482400  0.0000646948823063
  0.5004234080551210  0.4996538463623338 -0.0000394014920750
  0.4985255977959798 -0.0009509347965684 -0.0002668157179196
 -0.0006604918169603  0.4992963487174976  0.2490664551984550
  0.4975752613044850 -0.0019218979971726  0.2493263984703755
  0.0003462090308036  0.2522735998945658  0.4997586545139227
  0.0015371405787044  0.2499257688315902  0.7515463043989762
  0.2489811283131321  0.2486841856551842 -0.0012771192430722
  0.2477959359271605  0.4998278810992943 -0.0000366118216768
  0.2500958968864124  0.7503741877842782  0.0022240809222455
  0.2509970193981018 -0.0011423804551470  0.2480182134410163
  0.2515462568751006 -0.0000894253035130  0.4973667385984334
  0.2513826217865869  0.0016940509043559  0.7531857913604231
  0.2508266773460018  0.0006733607567742  0.0018896337226243
 
  0.00000000E+00  0.00000000E+00  0.00000000E+00
  0.00000000E+00  0.00000000E+00  0.00000000E+00
  0.00000000E+00  0.00000000E+00  0.00000000E+00
  0.00000000E+00  0.00000000E+00  0.00000000E+00
  0.00000000E+00  0.00000000E+00  0.00000000E+00
  0.00000000E+00  0.00000000E+00  0.00000000E+00
  0.00000000E+00  0.00000000E+00  0.00000000E+00
  0.00000000E+00  0.00000000E+00  0.00000000E+00
  0.00000000E+00  0.00000000E+00  0.00000000E+00
  0.00000000E+00  0.00000000E+00  0.00000000E+00
  0.00000000E+00  0.00000000E+00  0.00000000E+00
  0.00000000E+00  0.00000000E+00  0.00000000E+00
  0.00000000E+00  0.00000000E+00  0.00000000E+00
  0.00000000E+00  0.00000000E+00  0.00000000E+00
  0.00000000E+00  0.00000000E+00  0.00000000E+00
  0.00000000E+00  0.00000000E+00  0.00000000E+00
  0.00000000E+00  0.00000000E+00  0.00000000E+00
  0.00000000E+00  0.00000000E+00  0.00000000E+00
  0.00000000E+00  0.00000000E+00  0.00000000E+00
  0.00000000E+00  0.00000000E+00  0.00000000E+00
  0.00000000E+00  0.00000000E+00  0.00000000E+00
  0.00000000E+00  0.00000000E+00  0.00000000E+00
  0.00000000E+00  0.00000000E+00  0.00000000E+00
  0.00000000E+00  0.00000000E+00  0.00000000E+00
  0.00000000E+00  0.00000000E+00  0.00000000E+00
  0.00000000E+00  0.00000000E+00  0.00000000E+00
  0.00000000E+00  0.00000000E+00  0.00000000E+00
  0.00000000E+00  0.00000000E+00  0.00000000E+00
  0.00000000E+00  0.00000000E+00  0.00000000E+00
  0.00000000E+00  0.00000000E+00  0.00000000E+00
  0.00000000E+00  0.00000000E+00  0.00000000E+00
  0.00000000E+00  0.00000000E+00  0.00000000E+00
  0.00000000E+00  0.00000000E+00  0.00000000E+00
  0.00000000E+00  0.00000000E+00  0.00000000E+00
  0.00000000E+00  0.00000000E+00  0.00000000E+00
  0.00000000E+00  0.00000000E+00  0.00000000E+00
  0.00000000E+00  0.00000000E+00  0.00000000E+00
  0.00000000E+00  0.00000000E+00  0.00000000E+00
  0.00000000E+00  0.00000000E+00  0.00000000E+00
  0.00000000E+00  0.00000000E+00  0.00000000E+00
  0.00000000E+00  0.00000000E+00  0.00000000E+00
  0.00000000E+00  0.00000000E+00  0.00000000E+00
  0.00000000E+00  0.00000000E+00  0.00000000E+00
  0.00000000E+00  0.00000000E+00  0.00000000E+00
  0.00000000E+00  0.00000000E+00  0.00000000E+00
  0.00000000E+00  0.00000000E+00  0.00000000E+00
  0.00000000E+00  0.00000000E+00  0.00000000E+00
  0.00000000E+00  0.00000000E+00  0.00000000E+00
  0.00000000E+00  0.00000000E+00  0.00000000E+00
  0.00000000E+00  0.00000000E+00  0.00000000E+00
  0.00000000E+00  0.00000000E+00  0.00000000E+00
  0.00000000E+00  0.00000000E+00  0.00000000E+00
  0.00000000E+00  0.00000000E+00  0.00000000E+00
  0.00000000E+00  0.00000000E+00  0.00000000E+00
  0.00000000E+00  0.00000000E+00  0.00000000E+00
  0.00000000E+00  0.00000000E+00  0.00000000E+00
  0.00000000E+00  0.00000000E+00  0.00000000E+00
  0.00000000E+00  0.00000000E+00  0.00000000E+00
  0.00000000E+00  0.00000000E+00  0.00000000E+00
  0.00000000E+00  0.00000000E+00  0.00000000E+00
  0.00000000E+00  0.00000000E+00  0.00000000E+00
  0.00000000E+00  0.00000000E+00  0.00000000E+00
  0.00000000E+00  0.00000000E+00  0.00000000E+00
  0.00000000E+00  0.00000000E+00  0.00000000E+00
  0.00000000E+00  0.00000000E+00  0.00000000E+00
  0.00000000E+00  0.00000000E+00  0.00000000E+00
  0.00000000E+00  0.00000000E+00  0.00000000E+00
  0.00000000E+00  0.00000000E+00  0.00000000E+00
  0.00000000E+00  0.00000000E+00  0.00000000E+00
  0.00000000E+00  0.00000000E+00  0.00000000E+00
  0.00000000E+00  0.00000000E+00  0.00000000E+00
  0.00000000E+00  0.00000000E+00  0.00000000E+00
  0.00000000E+00  0.00000000E+00  0.00000000E+00
  0.00000000E+00  0.00000000E+00  0.00000000E+00
  0.00000000E+00  0.00000000E+00  0.00000000E+00
  0.00000000E+00  0.00000000E+00  0.00000000E+00
  0.00000000E+00  0.00000000E+00  0.00000000E+00
  0.00000000E+00  0.00000000E+00  0.00000000E+00
  0.00000000E+00  0.00000000E+00  0.00000000E+00
  0.00000000E+00  0.00000000E+00  0.00000000E+00
  0.00000000E+00  0.00000000E+00  0.00000000E+00
  0.00000000E+00  0.00000000E+00  0.00000000E+00
  0.00000000E+00  0.00000000E+00  0.00000000E+00
  0.00000000E+00  0.00000000E+00  0.00000000E+00
  0.00000000E+00  0.00000000E+00  0.00000000E+00
  0.00000000E+00  0.00000000E+00  0.00000000E+00
  0.00000000E+00  0.00000000E+00  0.00000000E+00
  0.00000000E+00  0.00000000E+00  0.00000000E+00
  0.00000000E+00  0.00000000E+00  0.00000000E+00
  0.00000000E+00  0.00000000E+00  0.00000000E+00
  0.00000000E+00  0.00000000E+00  0.00000000E+00
  0.00000000E+00  0.00000000E+00  0.00000000E+00
  0.00000000E+00  0.00000000E+00  0.00000000E+00
  0.00000000E+00  0.00000000E+00  0.00000000E+00
  0.00000000E+00  0.00000000E+00  0.00000000E+00
  0.00000000E+00  0.00000000E+00  0.00000000E+00
  0.00000000E+00  0.00000000E+00  0.00000000E+00
  0.00000000E+00  0.00000000E+00  0.00000000E+00
  0.00000000E+00  0.00000000E+00  0.00000000E+00
  0.00000000E+00  0.00000000E+00  0.00000000E+00
  0.00000000E+00  0.00000000E+00  0.00000000E+00
  0.00000000E+00  0.00000000E+00  0.00000000E+00
  0.00000000E+00  0.00000000E+00  0.00000000E+00
  0.00000000E+00  0.00000000E+00  0.00000000E+00
  0.00000000E+00  0.00000000E+00  0.00000000E+00
  0.00000000E+00  0.00000000E+00  0.00000000E+00
  0.00000000E+00  0.00000000E+00  0.00000000E+00
  0.00000000E+00  0.00000000E+00  0.00000000E+00
  0.00000000E+00  0.00000000E+00  0.00000000E+00
  0.00000000E+00  0.00000000E+00  0.00000000E+00
  0.00000000E+00  0.00000000E+00  0.00000000E+00
  0.00000000E+00  0.00000000E+00  0.00000000E+00
  0.00000000E+00  0.00000000E+00  0.00000000E+00
  0.00000000E+00  0.00000000E+00  0.00000000E+00
  0.00000000E+00  0.00000000E+00  0.00000000E+00
  0.00000000E+00  0.00000000E+00  0.00000000E+00
  0.00000000E+00  0.00000000E+00  0.00000000E+00
  0.00000000E+00  0.00000000E+00  0.00000000E+00
  0.00000000E+00  0.00000000E+00  0.00000000E+00
  0.00000000E+00  0.00000000E+00  0.00000000E+00
  0.00000000E+00  0.00000000E+00  0.00000000E+00
  0.00000000E+00  0.00000000E+00  0.00000000E+00
  0.00000000E+00  0.00000000E+00  0.00000000E+00
  0.00000000E+00  0.00000000E+00  0.00000000E+00
  0.00000000E+00  0.00000000E+00  0.00000000E+00
  0.00000000E+00  0.00000000E+00  0.00000000E+00
  0.00000000E+00  0.00000000E+00  0.00000000E+00
  0.00000000E+00  0.00000000E+00  0.00000000E+00
