#BCC aalvarado POSCAR generator         
    12.76000000000000     
     1.0183806524637746   -0.0009545806400716    0.0005341449915436
    -0.0009551270739011    1.0172490550513011   -0.0003630335201012
     0.0005343341392340   -0.0003629277842427    1.0171670506359380
   Ta   W 
    76    52
Direct
  0.4989748789620703  0.5006821313257531  0.4999844900914805
  0.6252931615784514  0.6239887456279138  0.6258942198102552
  0.6254861451523375  0.6220435106915434  0.3720777332611365
  0.3739871757162356  0.3733237120947697  0.3707264710522069
  0.3748731628724389  0.6217444305380575  0.3708954711745172
  0.3734503001751937  0.6240590105541334  0.6274064891823745
  0.7531820945681701  0.7507268545465285  0.7521282551184020
  0.7559531050864010  0.4997354424893043  0.7507818723874932
  0.4983977025710792  0.5010944019617753  0.7518347901362238
  0.5013512753336865  0.7515679465459255  0.5014223683955648
  0.5011088786292385  0.7513429699043679  0.7534480034258609
  0.5014393566638435  0.7499622879979256  0.2458556156472343
  0.7517265877056903  0.2516640408811937  0.2480341848595339
  0.7513944424963525  0.2524504526764058  0.5000269654825236
  0.2490638250695692  0.2474763771543032  0.5035251711765765
  0.2450363891014712  0.5018586098140151  0.4997435055166760
  0.7516713642312595  0.2513190625600986  0.7497572836346523
  0.4979866607230103  0.2468244466132988  0.7504509914045168
  0.2495693347939418  0.2469628712208137  0.7523989262136278
  0.2475381957788477  0.7480830842513756  0.2506942567660417
  0.2444561774245373  0.7487007166859933  0.5012008787957930
  0.2456665270002258  0.7494638107079656  0.7512666655880038
  0.8768331061306368  0.8768865700182681  0.6239443360629219
  0.6253417320750350  0.6228616700165327  0.8764602594986313
  0.6248680949731049  0.8754088634838024  0.3733908413278310
  0.6219941662978902  0.3752578009590006  0.8793215282406363
  0.3740424916719505  0.3772331131799661  0.8782794876299373
  0.3723531138058264  0.8776915755973546  0.3728831569756201
  0.3757789121096141  0.8751322082903678  0.6283962229853006
  0.3727342273649383  0.8762172256142372  0.8767908647451430
  0.6273869021616338  0.8765355823434091  0.1233176310785713
  0.6217017870938940  0.3768701791636156  0.1258732150313279
  0.3754571283181918  0.3761119800712416  0.1252020871495010
  0.3721993312059704  0.6213050819747760  0.1232637601723276
  0.3697835736881027  0.8763957159857718  0.1225151780420360
  0.8789850780876026  0.1253638178964214  0.1229306607812893
  0.8790006266778581  0.1265041073829253  0.3760760919723304
  0.6227943233779870  0.1293161014595044  0.3742502865306768
  0.3738857590362223  0.1281083798505044  0.3725054738559702
  0.8783742141830985  0.1237876744887326  0.6224691314917155
  0.1247909648848450  0.1242690109033804  0.1251366795213687
  0.1236561615619127  0.1258618067100437  0.3726958818007265
  0.1245431437630163  0.3713861581349744  0.3723482885033086
  0.1242444193075005  0.3757368749699537  0.6263561495045283
  0.1247271216673646  0.6244993481794692  0.1211535239336922
  0.8768215136090344  0.1234671148368685  0.8790604812500251
  0.6256487306948127  0.1251740059213292  0.8770748846333741
  0.1228537731679862  0.1236182898799822  0.8801751537861724
  0.1245165321854901  0.8741029619009082  0.1230945954371852
  0.1239647082605629  0.8770970001972920  0.3724141433838957
  0.0029957880418293 -0.0037309048380981  0.7510989866782376
  0.0014035259338340  0.7477788069957708  0.7512906854119864
  0.7535580267088123  0.7492476820006310  0.0002749023208658
  0.7490056155568166 -0.0022427256538095  0.7505033362214162
  0.0000931182651077  0.7468317195721271  0.5000916849248752
  0.7480877233490493 -0.0000825149154415  0.5009479830831505
 -0.0020168148297603  0.5023382779814153  0.4988016265008937
  0.7553152146047539  0.5013192465424162  0.0008057193930566
  0.5023448538360999  0.7501418671625590 -0.0011483612206824
  0.5007057254540742  0.0015799191119473  0.5038482402249951
  0.5002456913032147  0.0022102960695150  0.0003833517199982
 -0.0034135943637586 -0.0034233364141714  0.2490529603746620
  0.7516460328505954 -0.0003985050710619  0.2489870109980401
 -0.0021989581275248  0.4998765562152460  0.2482769891201662
  0.5011149352850387  0.0029156719564285  0.2454545725480599
  0.0010125502815628  0.2522293723522192  0.7514497491290422
  0.7524500208021837  0.2527516829240453  0.0021676246106372
  0.2491147129173649  0.2506731920938685 -0.0003436393679898
  0.2490803164886198  0.0020525867696606  0.5053717181376416
  0.2475630404566573  0.0006655477092849  0.7495897144052502
  0.6220836579016897  0.3757261237353994  0.3713483268552826
  0.6229096353395450  0.3749265368582244  0.6238875915154202
  0.3731689918801841  0.3762610441554772  0.6261560751528286
  0.7542394125413237  0.7492999047559645  0.4991775872514674
  0.7558739846869382  0.4994022654915203  0.4998211425997889
  0.7535740041906989  0.7491717706482024  0.2476153732814430
  0.7542546050600362  0.5010205635447500  0.2483198906717174
  0.5006534999857525  0.5009664240667324  0.2477747831072894
  0.4996026789240202  0.2487420665415473  0.2468726846059876
  0.4989609653846242  0.2483625750285541  0.5024934767072131
  0.2490609117727540  0.2502008410865452  0.2464709405977317
  0.2454008921118116  0.4994941445488283  0.2485424495885385
  0.2462922345109281  0.5016764936347407  0.7525969582906336
  0.8773283115387390  0.8749872003384123  0.8779844130063056
  0.8771181370120221  0.6242427339168787  0.6263588921262965
  0.8802052604701682  0.6238511004702101  0.8768666563928023
  0.6253248438637528  0.8754819986098504  0.6267980219683449
  0.6257504363725904  0.8776383915617206  0.8762536193644597
  0.8773538474005694  0.8747163264994411  0.3742220962705040
  0.8748367500890559  0.6244448841085313  0.3714427526713771
  0.8764250260285273  0.3741055696030869  0.3727585500028690
  0.8782986586384268  0.3739922346962024  0.6253227360135142
  0.8794743547412862  0.3757808589736128  0.8768545625067452
  0.3717309780256668  0.6236564447364834  0.8777211400394257
  0.8779558553395722  0.8742528720055529  0.1224115366793143
  0.8783914020654825  0.6248153297994583  0.1242601152937479
  0.6253963041863104  0.6218769011897139  0.1250062440373842
  0.8775544004942883  0.3755815591142792  0.1244570236599474
  0.6247980319789861  0.1279249086901227  0.1234796327407183
  0.3725475585493840  0.1273516012475117  0.1258049506310309
  0.6240589435709413  0.1258444821678609  0.6261670452321236
  0.3759168089106686  0.1252387912547503  0.6261241298506698
  0.1253375060965036  0.3750140357755720  0.1246434528421825
  0.1223853938600694  0.1257645456062057  0.6241224856699132
  0.1236994198748370  0.6239714567123528  0.3708072820305452
  0.1246999864845066  0.6219918435689733  0.6286832754855625
  0.3752872491321471  0.1239604346578175  0.8775984837816294
  0.1247810692490043  0.3777938460806529  0.8766971876835661
  0.1250157976975627  0.6227719045875271  0.8772977206719116
  0.1234715560576340  0.8748817922239226  0.6245568366683831
  0.1250438035903583  0.8732709399636760  0.8796876517149247
 -0.0004887865782512 -0.0044084887278844 -0.0004575303247250
 -0.0014303718464248  0.7482141008622829 -0.0022922494732118
  0.7504617370142763 -0.0019786494179915 -0.0001818864417879
  0.0013488956295214 -0.0024017780054472  0.5003836266715402
 -0.0002205441435151  0.5007162969072573  0.7518148268695194
 -0.0000541221169800  0.4998906603401189 -0.0010375506313478
  0.4995664225914512  0.5026814135043989  0.0001957495223517
  0.5005325598889047  0.0013812262723119  0.7513580352376348
 -0.0028900119844404  0.7472187647575682  0.2495466857893405
 -0.0009409153121349  0.2537587191219716  0.2479793641280444
 -0.0003406809513461  0.2521047902239154  0.5011104364520482
  0.0010832877205550  0.2546014179623927  0.0001130763797337
  0.4981412902254673  0.2475147438815321  0.0006709918655043
  0.2464513758912364  0.4992732156431692 -0.0021381899309016
  0.2476199467686371  0.7482839758355441 -0.0031654326468717
  0.2495493318856960  0.0011022434504824  0.2487641014841435
  0.2503515158972670  0.0015820303128689 -0.0019692898735995
 
  0.00000000E+00  0.00000000E+00  0.00000000E+00
  0.00000000E+00  0.00000000E+00  0.00000000E+00
  0.00000000E+00  0.00000000E+00  0.00000000E+00
  0.00000000E+00  0.00000000E+00  0.00000000E+00
  0.00000000E+00  0.00000000E+00  0.00000000E+00
  0.00000000E+00  0.00000000E+00  0.00000000E+00
  0.00000000E+00  0.00000000E+00  0.00000000E+00
  0.00000000E+00  0.00000000E+00  0.00000000E+00
  0.00000000E+00  0.00000000E+00  0.00000000E+00
  0.00000000E+00  0.00000000E+00  0.00000000E+00
  0.00000000E+00  0.00000000E+00  0.00000000E+00
  0.00000000E+00  0.00000000E+00  0.00000000E+00
  0.00000000E+00  0.00000000E+00  0.00000000E+00
  0.00000000E+00  0.00000000E+00  0.00000000E+00
  0.00000000E+00  0.00000000E+00  0.00000000E+00
  0.00000000E+00  0.00000000E+00  0.00000000E+00
  0.00000000E+00  0.00000000E+00  0.00000000E+00
  0.00000000E+00  0.00000000E+00  0.00000000E+00
  0.00000000E+00  0.00000000E+00  0.00000000E+00
  0.00000000E+00  0.00000000E+00  0.00000000E+00
  0.00000000E+00  0.00000000E+00  0.00000000E+00
  0.00000000E+00  0.00000000E+00  0.00000000E+00
  0.00000000E+00  0.00000000E+00  0.00000000E+00
  0.00000000E+00  0.00000000E+00  0.00000000E+00
  0.00000000E+00  0.00000000E+00  0.00000000E+00
  0.00000000E+00  0.00000000E+00  0.00000000E+00
  0.00000000E+00  0.00000000E+00  0.00000000E+00
  0.00000000E+00  0.00000000E+00  0.00000000E+00
  0.00000000E+00  0.00000000E+00  0.00000000E+00
  0.00000000E+00  0.00000000E+00  0.00000000E+00
  0.00000000E+00  0.00000000E+00  0.00000000E+00
  0.00000000E+00  0.00000000E+00  0.00000000E+00
  0.00000000E+00  0.00000000E+00  0.00000000E+00
  0.00000000E+00  0.00000000E+00  0.00000000E+00
  0.00000000E+00  0.00000000E+00  0.00000000E+00
  0.00000000E+00  0.00000000E+00  0.00000000E+00
  0.00000000E+00  0.00000000E+00  0.00000000E+00
  0.00000000E+00  0.00000000E+00  0.00000000E+00
  0.00000000E+00  0.00000000E+00  0.00000000E+00
  0.00000000E+00  0.00000000E+00  0.00000000E+00
  0.00000000E+00  0.00000000E+00  0.00000000E+00
  0.00000000E+00  0.00000000E+00  0.00000000E+00
  0.00000000E+00  0.00000000E+00  0.00000000E+00
  0.00000000E+00  0.00000000E+00  0.00000000E+00
  0.00000000E+00  0.00000000E+00  0.00000000E+00
  0.00000000E+00  0.00000000E+00  0.00000000E+00
  0.00000000E+00  0.00000000E+00  0.00000000E+00
  0.00000000E+00  0.00000000E+00  0.00000000E+00
  0.00000000E+00  0.00000000E+00  0.00000000E+00
  0.00000000E+00  0.00000000E+00  0.00000000E+00
  0.00000000E+00  0.00000000E+00  0.00000000E+00
  0.00000000E+00  0.00000000E+00  0.00000000E+00
  0.00000000E+00  0.00000000E+00  0.00000000E+00
  0.00000000E+00  0.00000000E+00  0.00000000E+00
  0.00000000E+00  0.00000000E+00  0.00000000E+00
  0.00000000E+00  0.00000000E+00  0.00000000E+00
  0.00000000E+00  0.00000000E+00  0.00000000E+00
  0.00000000E+00  0.00000000E+00  0.00000000E+00
  0.00000000E+00  0.00000000E+00  0.00000000E+00
  0.00000000E+00  0.00000000E+00  0.00000000E+00
  0.00000000E+00  0.00000000E+00  0.00000000E+00
  0.00000000E+00  0.00000000E+00  0.00000000E+00
  0.00000000E+00  0.00000000E+00  0.00000000E+00
  0.00000000E+00  0.00000000E+00  0.00000000E+00
  0.00000000E+00  0.00000000E+00  0.00000000E+00
  0.00000000E+00  0.00000000E+00  0.00000000E+00
  0.00000000E+00  0.00000000E+00  0.00000000E+00
  0.00000000E+00  0.00000000E+00  0.00000000E+00
  0.00000000E+00  0.00000000E+00  0.00000000E+00
  0.00000000E+00  0.00000000E+00  0.00000000E+00
  0.00000000E+00  0.00000000E+00  0.00000000E+00
  0.00000000E+00  0.00000000E+00  0.00000000E+00
  0.00000000E+00  0.00000000E+00  0.00000000E+00
  0.00000000E+00  0.00000000E+00  0.00000000E+00
  0.00000000E+00  0.00000000E+00  0.00000000E+00
  0.00000000E+00  0.00000000E+00  0.00000000E+00
  0.00000000E+00  0.00000000E+00  0.00000000E+00
  0.00000000E+00  0.00000000E+00  0.00000000E+00
  0.00000000E+00  0.00000000E+00  0.00000000E+00
  0.00000000E+00  0.00000000E+00  0.00000000E+00
  0.00000000E+00  0.00000000E+00  0.00000000E+00
  0.00000000E+00  0.00000000E+00  0.00000000E+00
  0.00000000E+00  0.00000000E+00  0.00000000E+00
  0.00000000E+00  0.00000000E+00  0.00000000E+00
  0.00000000E+00  0.00000000E+00  0.00000000E+00
  0.00000000E+00  0.00000000E+00  0.00000000E+00
  0.00000000E+00  0.00000000E+00  0.00000000E+00
  0.00000000E+00  0.00000000E+00  0.00000000E+00
  0.00000000E+00  0.00000000E+00  0.00000000E+00
  0.00000000E+00  0.00000000E+00  0.00000000E+00
  0.00000000E+00  0.00000000E+00  0.00000000E+00
  0.00000000E+00  0.00000000E+00  0.00000000E+00
  0.00000000E+00  0.00000000E+00  0.00000000E+00
  0.00000000E+00  0.00000000E+00  0.00000000E+00
  0.00000000E+00  0.00000000E+00  0.00000000E+00
  0.00000000E+00  0.00000000E+00  0.00000000E+00
  0.00000000E+00  0.00000000E+00  0.00000000E+00
  0.00000000E+00  0.00000000E+00  0.00000000E+00
  0.00000000E+00  0.00000000E+00  0.00000000E+00
  0.00000000E+00  0.00000000E+00  0.00000000E+00
  0.00000000E+00  0.00000000E+00  0.00000000E+00
  0.00000000E+00  0.00000000E+00  0.00000000E+00
  0.00000000E+00  0.00000000E+00  0.00000000E+00
  0.00000000E+00  0.00000000E+00  0.00000000E+00
  0.00000000E+00  0.00000000E+00  0.00000000E+00
  0.00000000E+00  0.00000000E+00  0.00000000E+00
  0.00000000E+00  0.00000000E+00  0.00000000E+00
  0.00000000E+00  0.00000000E+00  0.00000000E+00
  0.00000000E+00  0.00000000E+00  0.00000000E+00
  0.00000000E+00  0.00000000E+00  0.00000000E+00
  0.00000000E+00  0.00000000E+00  0.00000000E+00
  0.00000000E+00  0.00000000E+00  0.00000000E+00
  0.00000000E+00  0.00000000E+00  0.00000000E+00
  0.00000000E+00  0.00000000E+00  0.00000000E+00
  0.00000000E+00  0.00000000E+00  0.00000000E+00
  0.00000000E+00  0.00000000E+00  0.00000000E+00
  0.00000000E+00  0.00000000E+00  0.00000000E+00
  0.00000000E+00  0.00000000E+00  0.00000000E+00
  0.00000000E+00  0.00000000E+00  0.00000000E+00
  0.00000000E+00  0.00000000E+00  0.00000000E+00
  0.00000000E+00  0.00000000E+00  0.00000000E+00
  0.00000000E+00  0.00000000E+00  0.00000000E+00
  0.00000000E+00  0.00000000E+00  0.00000000E+00
  0.00000000E+00  0.00000000E+00  0.00000000E+00
  0.00000000E+00  0.00000000E+00  0.00000000E+00
  0.00000000E+00  0.00000000E+00  0.00000000E+00
  0.00000000E+00  0.00000000E+00  0.00000000E+00
  0.00000000E+00  0.00000000E+00  0.00000000E+00
