#generated using str2pos                
    1.000000000000000     
    13.0423910304806050   -0.0018459600095678    0.0066222168894157
    -0.0018437435514318   13.0515411975385991   -0.0057784505273683
     0.0066161194572594   -0.0057773606026865   13.0597083467167341
   Ta   W 
    90    38
Direct
  0.5007080862861462  0.2441980538867158  0.2531856942684833
  0.3761773271763033  0.1250622551533908  0.1211664022474178
  0.7515001526652458  0.2464132395770129  0.2479303450936023
  0.6231776278299925  0.1249320942115184  0.1181398393166392
  0.0001603377972886  0.2494582628287390  0.2429838803648160
  0.2512060628826425  0.5011368034394986  0.2480818728517803
  0.4961474802039958  0.5024973314655143  0.2494005838980081
  0.3757990190140533  0.3700162294587721  0.1243378157152272
  0.7526084053437926  0.4967646751429226  0.2463485538454450
  0.6234027886340089  0.3706140829385666  0.1208804521339582
  0.0025240856492644  0.4949901745838486  0.2463233010218719
  0.1231310538116348  0.6293831580432612  0.1288558928044028
  0.4978860047191673  0.7532790705929443  0.2502223196355312
  0.7470920673081956  0.7561115734905155  0.2481133742564834
  0.6262756444305917  0.6248137973114199  0.1249422499097039
  0.8774462143890770  0.6272282516886726  0.1280475638091877
  0.2539965584202161 -0.0005898923231724  0.2501976064394143
  0.1264164382727502  0.8739843662679527  0.1265100338211563
  0.5004910921189960 -0.0030635712829623  0.2518508814221105
  0.7478866016991140 -0.0006723243906561  0.2488688808905795
 -0.0003687977750446  0.0029769897846715  0.2455216958303681
  0.1273161227091133  0.1270622747170945  0.3745762220811327
  0.5007205441004413  0.2457039687304211  0.4995811682864364
  0.7490255703351314  0.2446024253103061  0.5015830705518560
 -0.0007677185837754  0.2477740209955197  0.5014524432033323
  0.8765528268070087  0.1242158514746673  0.3739218516981682
  0.2527937208911955  0.4995015682187365  0.4991098927755314
  0.1292089822085890  0.3706906308269889  0.3754889384515055
  0.4961860617648216  0.4990959714836504  0.4999301357718990
  0.3726139316246938  0.3710017193239694  0.3739060020838086
  0.7511705543836725  0.4992435075136263  0.5004368617649088
  0.6252559891733392  0.3751899517501480  0.3739948510952691
  0.0029792191921170  0.4989851506370548  0.4999916428001823
  0.8764708311859126  0.3733707462993017  0.3754600760804973
  0.1261401751953270  0.6285947425949661  0.3740513747176533
  0.4986147527070072  0.7523873172069271  0.4954930788915100
  0.7482973357529078  0.7530362049013387  0.4986855005039071
  0.6258282714286616  0.6232780401072241  0.3738135023454150
  0.0004765345526484  0.7506043349693600  0.5035546188668645
  0.8778095613198255  0.6269613880218211  0.3726404463545554
  0.2538193922397554 -0.0003632223523835  0.4956215163405540
  0.1254541442716390  0.8716315824303307  0.3738296238073712
  0.5011147227195945  0.0008874991138790  0.4960209021148969
  0.7466199514555696  0.0022804881852341  0.4988021008572589
 -0.0005603642977687  0.0020009110472576  0.5006861695783981
  0.8779991006923460  0.8742185349924196  0.3743131770063272
  0.1272164010968694  0.1268130347807032  0.6285504016495409
  0.4991431169319140  0.2477049234514617  0.7467362956011017
  0.3704768379031242  0.1251802505900639  0.6257891638241462
  0.7505971585018757  0.2495679112007240  0.7484748903774184
  0.1262285928502655  0.3729383643251085  0.6282287373228609
  0.4980489638082137  0.4968307627850547  0.7485613275336793
  0.7533872977128656  0.4991440332183430  0.7547950261526060
  0.6257663934359293  0.3751559510009531  0.6252659598038404
  0.8795598370195463  0.3746877213406966  0.6273235386701571
  0.2465111655473733  0.7487305807997185  0.7543747806223753
  0.1268934878936704  0.6224285258179857  0.6264953897965149
  0.4984974207532921  0.7518570855835514  0.7511153594683058
  0.3713009987202128  0.6257463883368989  0.6257220712137312
  0.7522339604477755  0.7480649576886296  0.7537868968219391
  0.6244773441918162  0.6251212245123753  0.6253664139339499
  0.0007976042714609  0.7472841821374632  0.7552304373889263
  0.8778580398750191  0.6231905107987022  0.6258835997067880
  0.1262363744947812  0.8777637753883191  0.6274481507396038
  0.4992367344992727  0.0041740551074280  0.7491927620224056
  0.3712685869380810  0.8758553206563209  0.6259865344599276
  0.6260523948576583  0.8760167494648823  0.6283249597991205
  0.8754341390274978  0.8780600122796233  0.6292060939768634
  0.2451706784710215  0.2509188449545873 -0.0014965464898735
  0.1244523628684271  0.1248786133529217  0.8709145331851431
  0.6259312987543921  0.1241783031608967  0.8786730139445805
  0.0009772902979735  0.2525151154538751  0.0012947809367557
  0.8737110537937322  0.1247054884566336  0.8736671821958231
  0.2455390024809214  0.4997972932093883  0.0011379489940363
  0.4966691666762468  0.5017386160370523  0.0014629776039863
  0.3732865169128796  0.3727417197653973  0.8741100347396595
  0.7556592920986176  0.4990433921333287 -0.0017352749625585
  0.6235717781869213  0.3703102515802758  0.8780535379181204
  0.0009103811808373  0.4974556268326060 -0.0017350300129451
  0.2499794066902147  0.7488631998658676  0.0013854575183285
  0.4972725639427214  0.7519400455048619  0.0054212929999185
  0.3732248930033437  0.6227313423521993  0.8734751957214149
  0.7511984932119155  0.7524110344522453  0.0020012026817240
  0.6229654626328052  0.6254714870851741  0.8772937830912750
 -0.0013551634626769  0.7499789368902100 -0.0022750939403236
  0.1264216617151594  0.8816537887083388  0.8758997270663093
  0.3730822313353598  0.8804001585869971  0.8765818423547147
  0.6248969230035279  0.8807898564945157  0.8765750253089784
 -0.0011553138075852  0.0031133635418817  0.0041767559705523
  0.8736538045617763  0.8819252791119890  0.8745368932972424
  0.2491712984125329  0.2473471846283450  0.2469393687437708
  0.1285189308210083  0.1243885898599225  0.1232379160127007
  0.8719758828295641  0.1250456377726579  0.1208930781606988
  0.1268722335390908  0.3744135897812351  0.1247363529465054
  0.8741554814123581  0.3735525063200416  0.1225579170698474
  0.2547345397816670  0.7506775231271954  0.2496578327295770
  0.3724118086879079  0.6261993400913126  0.1262277503419300
 -0.0001790733327259  0.7521678779044338  0.2484151150036981
  0.3732322859361675  0.8778382883245341  0.1237295455452343
  0.6239995890440343  0.8787982006296159  0.1221503802629091
  0.8753928612553713  0.8762111015370689  0.1242330230803800
  0.2526095527833629  0.2491712539479039  0.5003974035339186
  0.3730647739542088  0.1258113364599584  0.3739562197880577
  0.6252904103900900  0.1243480921010493  0.3729651726287857
  0.2519060178535467  0.7500620551726119  0.4986401493780848
  0.3722863313344424  0.6267356168348569  0.3756428751822215
  0.3726003632492934  0.8732461209768191  0.3747841861887757
  0.6248106988800465  0.8749193797728709  0.3747544703506643
  0.2506221735749216  0.2513546994751527  0.7518474828526593
  0.6249092338304896  0.1236305038638455  0.6269966819839506
 -0.0008370663306793  0.2518248078136197  0.7524537647590395
  0.8772045035035766  0.1241895938715023  0.6289541830346411
  0.2480455812334247  0.4982209332421112  0.7516856220225845
  0.3710723735116893  0.3726245768156818  0.6255472139332366
  0.0013413666233537  0.4998749885946517  0.7555502564920468
  0.2511475986702568  0.0022110364103142  0.7510246917142750
  0.7489025738083942  0.0034995799286129  0.7481073978826770
 -0.0009443595989947  0.0025507001768972  0.7500110528827302
  0.4970798320997024  0.2477839447324734 -0.0025364018179032
  0.3729257692539363  0.1250590365560719  0.8753911410622589
  0.7543687775615396  0.2506714925656405 -0.0007174449225106
  0.1251834453958834  0.3739929004681792  0.8708218200577972
  0.8771383640633569  0.3720177644235657  0.8736978806892146
  0.1249693586944706  0.6225963679365469  0.8748772758698597
  0.8765096963128357  0.6240542399549923  0.8760453174127224
  0.2501248854493119  0.0024353012375845  0.0019736749391908
  0.4984158871804200 -0.0009810948612406  0.0011063498533304
  0.7508749182958973  0.0000866223861096  0.0031108437363524
 
  0.00000000E+00  0.00000000E+00  0.00000000E+00
  0.00000000E+00  0.00000000E+00  0.00000000E+00
  0.00000000E+00  0.00000000E+00  0.00000000E+00
  0.00000000E+00  0.00000000E+00  0.00000000E+00
  0.00000000E+00  0.00000000E+00  0.00000000E+00
  0.00000000E+00  0.00000000E+00  0.00000000E+00
  0.00000000E+00  0.00000000E+00  0.00000000E+00
  0.00000000E+00  0.00000000E+00  0.00000000E+00
  0.00000000E+00  0.00000000E+00  0.00000000E+00
  0.00000000E+00  0.00000000E+00  0.00000000E+00
  0.00000000E+00  0.00000000E+00  0.00000000E+00
  0.00000000E+00  0.00000000E+00  0.00000000E+00
  0.00000000E+00  0.00000000E+00  0.00000000E+00
  0.00000000E+00  0.00000000E+00  0.00000000E+00
  0.00000000E+00  0.00000000E+00  0.00000000E+00
  0.00000000E+00  0.00000000E+00  0.00000000E+00
  0.00000000E+00  0.00000000E+00  0.00000000E+00
  0.00000000E+00  0.00000000E+00  0.00000000E+00
  0.00000000E+00  0.00000000E+00  0.00000000E+00
  0.00000000E+00  0.00000000E+00  0.00000000E+00
  0.00000000E+00  0.00000000E+00  0.00000000E+00
  0.00000000E+00  0.00000000E+00  0.00000000E+00
  0.00000000E+00  0.00000000E+00  0.00000000E+00
  0.00000000E+00  0.00000000E+00  0.00000000E+00
  0.00000000E+00  0.00000000E+00  0.00000000E+00
  0.00000000E+00  0.00000000E+00  0.00000000E+00
  0.00000000E+00  0.00000000E+00  0.00000000E+00
  0.00000000E+00  0.00000000E+00  0.00000000E+00
  0.00000000E+00  0.00000000E+00  0.00000000E+00
  0.00000000E+00  0.00000000E+00  0.00000000E+00
  0.00000000E+00  0.00000000E+00  0.00000000E+00
  0.00000000E+00  0.00000000E+00  0.00000000E+00
  0.00000000E+00  0.00000000E+00  0.00000000E+00
  0.00000000E+00  0.00000000E+00  0.00000000E+00
  0.00000000E+00  0.00000000E+00  0.00000000E+00
  0.00000000E+00  0.00000000E+00  0.00000000E+00
  0.00000000E+00  0.00000000E+00  0.00000000E+00
  0.00000000E+00  0.00000000E+00  0.00000000E+00
  0.00000000E+00  0.00000000E+00  0.00000000E+00
  0.00000000E+00  0.00000000E+00  0.00000000E+00
  0.00000000E+00  0.00000000E+00  0.00000000E+00
  0.00000000E+00  0.00000000E+00  0.00000000E+00
  0.00000000E+00  0.00000000E+00  0.00000000E+00
  0.00000000E+00  0.00000000E+00  0.00000000E+00
  0.00000000E+00  0.00000000E+00  0.00000000E+00
  0.00000000E+00  0.00000000E+00  0.00000000E+00
  0.00000000E+00  0.00000000E+00  0.00000000E+00
  0.00000000E+00  0.00000000E+00  0.00000000E+00
  0.00000000E+00  0.00000000E+00  0.00000000E+00
  0.00000000E+00  0.00000000E+00  0.00000000E+00
  0.00000000E+00  0.00000000E+00  0.00000000E+00
  0.00000000E+00  0.00000000E+00  0.00000000E+00
  0.00000000E+00  0.00000000E+00  0.00000000E+00
  0.00000000E+00  0.00000000E+00  0.00000000E+00
  0.00000000E+00  0.00000000E+00  0.00000000E+00
  0.00000000E+00  0.00000000E+00  0.00000000E+00
  0.00000000E+00  0.00000000E+00  0.00000000E+00
  0.00000000E+00  0.00000000E+00  0.00000000E+00
  0.00000000E+00  0.00000000E+00  0.00000000E+00
  0.00000000E+00  0.00000000E+00  0.00000000E+00
  0.00000000E+00  0.00000000E+00  0.00000000E+00
  0.00000000E+00  0.00000000E+00  0.00000000E+00
  0.00000000E+00  0.00000000E+00  0.00000000E+00
  0.00000000E+00  0.00000000E+00  0.00000000E+00
  0.00000000E+00  0.00000000E+00  0.00000000E+00
  0.00000000E+00  0.00000000E+00  0.00000000E+00
  0.00000000E+00  0.00000000E+00  0.00000000E+00
  0.00000000E+00  0.00000000E+00  0.00000000E+00
  0.00000000E+00  0.00000000E+00  0.00000000E+00
  0.00000000E+00  0.00000000E+00  0.00000000E+00
  0.00000000E+00  0.00000000E+00  0.00000000E+00
  0.00000000E+00  0.00000000E+00  0.00000000E+00
  0.00000000E+00  0.00000000E+00  0.00000000E+00
  0.00000000E+00  0.00000000E+00  0.00000000E+00
  0.00000000E+00  0.00000000E+00  0.00000000E+00
  0.00000000E+00  0.00000000E+00  0.00000000E+00
  0.00000000E+00  0.00000000E+00  0.00000000E+00
  0.00000000E+00  0.00000000E+00  0.00000000E+00
  0.00000000E+00  0.00000000E+00  0.00000000E+00
  0.00000000E+00  0.00000000E+00  0.00000000E+00
  0.00000000E+00  0.00000000E+00  0.00000000E+00
  0.00000000E+00  0.00000000E+00  0.00000000E+00
  0.00000000E+00  0.00000000E+00  0.00000000E+00
  0.00000000E+00  0.00000000E+00  0.00000000E+00
  0.00000000E+00  0.00000000E+00  0.00000000E+00
  0.00000000E+00  0.00000000E+00  0.00000000E+00
  0.00000000E+00  0.00000000E+00  0.00000000E+00
  0.00000000E+00  0.00000000E+00  0.00000000E+00
  0.00000000E+00  0.00000000E+00  0.00000000E+00
  0.00000000E+00  0.00000000E+00  0.00000000E+00
  0.00000000E+00  0.00000000E+00  0.00000000E+00
  0.00000000E+00  0.00000000E+00  0.00000000E+00
  0.00000000E+00  0.00000000E+00  0.00000000E+00
  0.00000000E+00  0.00000000E+00  0.00000000E+00
  0.00000000E+00  0.00000000E+00  0.00000000E+00
  0.00000000E+00  0.00000000E+00  0.00000000E+00
  0.00000000E+00  0.00000000E+00  0.00000000E+00
  0.00000000E+00  0.00000000E+00  0.00000000E+00
  0.00000000E+00  0.00000000E+00  0.00000000E+00
  0.00000000E+00  0.00000000E+00  0.00000000E+00
  0.00000000E+00  0.00000000E+00  0.00000000E+00
  0.00000000E+00  0.00000000E+00  0.00000000E+00
  0.00000000E+00  0.00000000E+00  0.00000000E+00
  0.00000000E+00  0.00000000E+00  0.00000000E+00
  0.00000000E+00  0.00000000E+00  0.00000000E+00
  0.00000000E+00  0.00000000E+00  0.00000000E+00
  0.00000000E+00  0.00000000E+00  0.00000000E+00
  0.00000000E+00  0.00000000E+00  0.00000000E+00
  0.00000000E+00  0.00000000E+00  0.00000000E+00
  0.00000000E+00  0.00000000E+00  0.00000000E+00
  0.00000000E+00  0.00000000E+00  0.00000000E+00
  0.00000000E+00  0.00000000E+00  0.00000000E+00
  0.00000000E+00  0.00000000E+00  0.00000000E+00
  0.00000000E+00  0.00000000E+00  0.00000000E+00
  0.00000000E+00  0.00000000E+00  0.00000000E+00
  0.00000000E+00  0.00000000E+00  0.00000000E+00
  0.00000000E+00  0.00000000E+00  0.00000000E+00
  0.00000000E+00  0.00000000E+00  0.00000000E+00
  0.00000000E+00  0.00000000E+00  0.00000000E+00
  0.00000000E+00  0.00000000E+00  0.00000000E+00
  0.00000000E+00  0.00000000E+00  0.00000000E+00
  0.00000000E+00  0.00000000E+00  0.00000000E+00
  0.00000000E+00  0.00000000E+00  0.00000000E+00
  0.00000000E+00  0.00000000E+00  0.00000000E+00
  0.00000000E+00  0.00000000E+00  0.00000000E+00
  0.00000000E+00  0.00000000E+00  0.00000000E+00
  0.00000000E+00  0.00000000E+00  0.00000000E+00
  0.00000000E+00  0.00000000E+00  0.00000000E+00
