#generated using str2pos                
    1.000000000000000     
    12.9602838344716425   -0.0949263749453863    0.0000000000000000
    -0.0949172167747572   12.9639329007641919    0.0000000000000000
     0.0000000000000000    0.0000000000000000   12.8751563327294143
   Ta   W 
    64    64
Direct
  0.1273110774710753  0.1228190402072166  0.1250214827078570
  0.3724710273707068  0.1276543958064439  0.1249170492924891
  0.7524264418327098  0.2475239700067243  0.2500000000000000
 -0.0024790659793149  0.2524224957835356  0.2500000000000000
  0.2475231711512631  0.5025040868215682  0.2500000000000000
  0.3772732618823026  0.3727178552194615  0.1249228816296549
  0.6224989726341386  0.3773313905266598  0.1250391470058176
  0.0022836244473060  0.4975728589777286  0.2500000000000000
  0.2524354852436011  0.7476943118669740  0.2500000000000000
  0.4976411976821024  0.7525471267608465  0.2500000000000000
  0.6273330166170138  0.6226281193824595  0.1249965066568454
  0.8724869506260171  0.6272846213363678  0.1251275244572859
  0.1227846009931087  0.8775307918993059  0.1252899798120206
  0.5024589783736954 -0.0023955135105017  0.2500000000000000
  0.7474987476258202  0.0023399750227023  0.2500000000000000
  0.8774415034101529  0.8724999509911018  0.1251510624489720
  0.1273110774710753  0.1228190402072166  0.3749785172921429
  0.3724710273707068  0.1276543958064439  0.3750829507075110
  0.7522514154931310  0.2474805654608012  0.4999742131804601
 -0.0024401283893433  0.2525337885399032  0.5002343880025052
  0.2472621801011758  0.5024986294488870  0.5004011610984632
  0.3772732618823026  0.3727178552194615  0.3750771183703449
  0.6224989726341386  0.3773313905266598  0.3749608529941824
  0.0021842231629156  0.4973852028390124  0.4997920013310468
  0.2526327401765014  0.7477562395363015  0.4998362610004172
  0.4977422762399750  0.7523715639672968  0.5000969320848550
  0.6273330166170138  0.6226281193824595  0.3750034933431546
  0.8724869506260171  0.6272846213363678  0.3748724755427144
  0.1227846009931087  0.8775307918993059  0.3747100201879796
  0.5024885515151580 -0.0022445801972427  0.4999202689526765
  0.7476598946463423  0.0023358266531836  0.4999460374967781
  0.8774415034101529  0.8724999509911018  0.3748489375510284
  0.1274238418828014  0.1233691937535925  0.6250274266719267
  0.3727030464507824  0.1275848952185717  0.6250724064488260
  0.7525145891055199  0.2476013213178321  0.7500000000000000
 -0.0024575431175351  0.2522374071489517  0.7500000000000000
  0.2478488678224729  0.5022870006678638  0.7500000000000000
  0.3770171056489207  0.3727617675162026  0.6250390907832220
  0.6228717065831073  0.3772487932281920  0.6250467046062016
  0.2518696577343010  0.7473535155486396  0.7500000000000000
  0.4976070543354035  0.7523805194152261  0.7500000000000000
  0.6271213318944447  0.6224792857596148  0.6250574553412770
  0.0037178442407518  0.7465377229103818  0.7500000000000000
  0.8722526619634952  0.6248098840395808  0.6247668875507747
  0.1240907554186630  0.8786697264154044  0.6236797274812487
  0.5025978532639925 -0.0023158764966901  0.7500000000000000
  0.7477946740139852  0.0021948928725966  0.7500000000000000
  0.8769617190290344  0.8729921411929121  0.6240074149141195
  0.1274238418828014  0.1233691937535925  0.8749725733280733
  0.3727030464507824  0.1275848952185717  0.8749275935511740
  0.7522514154931310  0.2474805654608012  0.0000257868195400
 -0.0024401283893433  0.2525337885399032 -0.0002343880025047
  0.2472621801011758  0.5024986294488870 -0.0004011610984634
  0.3770171056489207  0.3727617675162026  0.8749609092167780
  0.6228717065831073  0.3772487932281920  0.8749532953937984
  0.0021842231629156  0.4973852028390124  0.0002079986689532
  0.2526327401765014  0.7477562395363015  0.0001637389995829
  0.4977422762399750  0.7523715639672968 -0.0000969320848549
  0.6271213318944447  0.6224792857596148  0.8749425446587230
  0.8722526619634952  0.6248098840395808  0.8752331124492253
  0.1240907554186630  0.8786697264154044  0.8763202725187513
  0.5024885515151580 -0.0022445801972427  0.0000797310473236
  0.7476598946463423  0.0023358266531836  0.0000539625032218
  0.8769617190290344  0.8729921411929121  0.8759925850858805
  0.2471753088982279  0.2528838152524688  0.2500000000000000
  0.5024524780871223  0.2474126821151179  0.2500000000000000
  0.6224222607073853  0.1275947279935463  0.1249426917497410
  0.8775326761869310  0.1224038807141838  0.1250153917446707
  0.1273887678370157  0.3725296112195310  0.1247445656186916
  0.4973011447300358  0.5027592339484337  0.2500000000000000
  0.7524263547348017  0.4972569387944681  0.2500000000000000
  0.8723629365164661  0.3774070184796512  0.1247762186990346
  0.1223453361898057  0.6276082750041869  0.1250827660478838
  0.3774831588618003  0.6225900631986584  0.1249877841359284
  0.7474607013379827  0.7524290259960308  0.2500000000000000
  0.0025907235701554  0.7474106520352115  0.2500000000000000
  0.2527556130881005 -0.0023102084731938  0.2500000000000000
  0.3725383611173762  0.8776630287615254  0.1249620610449380
  0.6276887311730359  0.8723379304955258  0.1249658569041111
 -0.0025627868679641  0.0026011433566384  0.2500000000000000
  0.2473056099350618  0.2528696416393861  0.4999741548436241
  0.5025077471370657  0.2475349633788338  0.5002034582317179
  0.6224222607073853  0.1275947279935463  0.3750573082502588
  0.8775326761869310  0.1224038807141838  0.3749846082553296
  0.1273887678370157  0.3725296112195310  0.3752554343813085
  0.4972531570894684  0.5025743121732597  0.4999974587894030
  0.7525988539843800  0.4971524685357490  0.5001644870374792
  0.8723629365164661  0.3774070184796512  0.3752237813009657
  0.1223453361898057  0.6276082750041869  0.3749172339521160
  0.3774831588618003  0.6225900631986584  0.3750122158640719
  0.7474545224362679  0.7522951353416863  0.4999901364635111
  0.0027290688143284  0.7470322475231714  0.5005047247196117
  0.2527329816399348 -0.0022440205771566  0.5000379772649519
  0.3725383611173762  0.8776630287615254  0.3750379389550620
  0.6276887311730359  0.8723379304955258  0.3750341430958892
 -0.0025115615696234  0.0027900099563611  0.4998239032205896
  0.2469970372103714  0.2532010534149930  0.7500000000000000
  0.5025443735439948  0.2474866413482199  0.7500000000000000
  0.6225054489875789  0.1275360963248972  0.6250633944741204
  0.8776395203831918  0.1227342665956696  0.6250122709782632
  0.1260689378911356  0.3735557051280720  0.6260445461512952
  0.4973681574134547  0.5024823462881600  0.7500000000000000
  0.7520497974762129  0.4971271952544579  0.7500000000000000
  0.0019086883603654  0.4981020091944427  0.7500000000000000
  0.8734431617027527  0.3780492305630663  0.6259951818404140
  0.1225617049261132  0.6251825935119054  0.6248797709904922
  0.3775017805644277  0.6224525758755374  0.6250213774774156
  0.7478121455641390  0.7520339001061174  0.7500000000000000
  0.2530433062126567 -0.0020894068375847  0.7500000000000000
  0.3728100146777114  0.8777253079279461  0.6250167514680965
  0.6276629915645223  0.8722525541997871  0.6249574056041369
 -0.0023044242872356  0.0024737376792225  0.7500000000000000
  0.2473056099350618  0.2528696416393861  0.0000258451563762
  0.5025077471370657  0.2475349633788338 -0.0002034582317181
  0.6225054489875789  0.1275360963248972  0.8749366055258796
  0.8776395203831918  0.1227342665956696  0.8749877290217368
  0.1260689378911356  0.3735557051280720  0.8739554538487048
  0.4972531570894684  0.5025743121732597  0.0000025412105968
  0.7525988539843800  0.4971524685357490 -0.0001644870374792
  0.8734431617027527  0.3780492305630663  0.8740048181595860
  0.1225617049261132  0.6251825935119054  0.8751202290095078
  0.3775017805644277  0.6224525758755374  0.8749786225225844
  0.7474545224362679  0.7522951353416863  0.0000098635364889
  0.0027290688143284  0.7470322475231714 -0.0005047247196116
  0.2527329816399348 -0.0022440205771566 -0.0000379772649515
  0.3728100146777114  0.8777253079279461  0.8749832485319035
  0.6276629915645223  0.8722525541997871  0.8750425943958631
 -0.0025115615696234  0.0027900099563611  0.0001760967794107
 
  0.00000000E+00  0.00000000E+00  0.00000000E+00
  0.00000000E+00  0.00000000E+00  0.00000000E+00
  0.00000000E+00  0.00000000E+00  0.00000000E+00
  0.00000000E+00  0.00000000E+00  0.00000000E+00
  0.00000000E+00  0.00000000E+00  0.00000000E+00
  0.00000000E+00  0.00000000E+00  0.00000000E+00
  0.00000000E+00  0.00000000E+00  0.00000000E+00
  0.00000000E+00  0.00000000E+00  0.00000000E+00
  0.00000000E+00  0.00000000E+00  0.00000000E+00
  0.00000000E+00  0.00000000E+00  0.00000000E+00
  0.00000000E+00  0.00000000E+00  0.00000000E+00
  0.00000000E+00  0.00000000E+00  0.00000000E+00
  0.00000000E+00  0.00000000E+00  0.00000000E+00
  0.00000000E+00  0.00000000E+00  0.00000000E+00
  0.00000000E+00  0.00000000E+00  0.00000000E+00
  0.00000000E+00  0.00000000E+00  0.00000000E+00
  0.00000000E+00  0.00000000E+00  0.00000000E+00
  0.00000000E+00  0.00000000E+00  0.00000000E+00
  0.00000000E+00  0.00000000E+00  0.00000000E+00
  0.00000000E+00  0.00000000E+00  0.00000000E+00
  0.00000000E+00  0.00000000E+00  0.00000000E+00
  0.00000000E+00  0.00000000E+00  0.00000000E+00
  0.00000000E+00  0.00000000E+00  0.00000000E+00
  0.00000000E+00  0.00000000E+00  0.00000000E+00
  0.00000000E+00  0.00000000E+00  0.00000000E+00
  0.00000000E+00  0.00000000E+00  0.00000000E+00
  0.00000000E+00  0.00000000E+00  0.00000000E+00
  0.00000000E+00  0.00000000E+00  0.00000000E+00
  0.00000000E+00  0.00000000E+00  0.00000000E+00
  0.00000000E+00  0.00000000E+00  0.00000000E+00
  0.00000000E+00  0.00000000E+00  0.00000000E+00
  0.00000000E+00  0.00000000E+00  0.00000000E+00
  0.00000000E+00  0.00000000E+00  0.00000000E+00
  0.00000000E+00  0.00000000E+00  0.00000000E+00
  0.00000000E+00  0.00000000E+00  0.00000000E+00
  0.00000000E+00  0.00000000E+00  0.00000000E+00
  0.00000000E+00  0.00000000E+00  0.00000000E+00
  0.00000000E+00  0.00000000E+00  0.00000000E+00
  0.00000000E+00  0.00000000E+00  0.00000000E+00
  0.00000000E+00  0.00000000E+00  0.00000000E+00
  0.00000000E+00  0.00000000E+00  0.00000000E+00
  0.00000000E+00  0.00000000E+00  0.00000000E+00
  0.00000000E+00  0.00000000E+00  0.00000000E+00
  0.00000000E+00  0.00000000E+00  0.00000000E+00
  0.00000000E+00  0.00000000E+00  0.00000000E+00
  0.00000000E+00  0.00000000E+00  0.00000000E+00
  0.00000000E+00  0.00000000E+00  0.00000000E+00
  0.00000000E+00  0.00000000E+00  0.00000000E+00
  0.00000000E+00  0.00000000E+00  0.00000000E+00
  0.00000000E+00  0.00000000E+00  0.00000000E+00
  0.00000000E+00  0.00000000E+00  0.00000000E+00
  0.00000000E+00  0.00000000E+00  0.00000000E+00
  0.00000000E+00  0.00000000E+00  0.00000000E+00
  0.00000000E+00  0.00000000E+00  0.00000000E+00
  0.00000000E+00  0.00000000E+00  0.00000000E+00
  0.00000000E+00  0.00000000E+00  0.00000000E+00
  0.00000000E+00  0.00000000E+00  0.00000000E+00
  0.00000000E+00  0.00000000E+00  0.00000000E+00
  0.00000000E+00  0.00000000E+00  0.00000000E+00
  0.00000000E+00  0.00000000E+00  0.00000000E+00
  0.00000000E+00  0.00000000E+00  0.00000000E+00
  0.00000000E+00  0.00000000E+00  0.00000000E+00
  0.00000000E+00  0.00000000E+00  0.00000000E+00
  0.00000000E+00  0.00000000E+00  0.00000000E+00
  0.00000000E+00  0.00000000E+00  0.00000000E+00
  0.00000000E+00  0.00000000E+00  0.00000000E+00
  0.00000000E+00  0.00000000E+00  0.00000000E+00
  0.00000000E+00  0.00000000E+00  0.00000000E+00
  0.00000000E+00  0.00000000E+00  0.00000000E+00
  0.00000000E+00  0.00000000E+00  0.00000000E+00
  0.00000000E+00  0.00000000E+00  0.00000000E+00
  0.00000000E+00  0.00000000E+00  0.00000000E+00
  0.00000000E+00  0.00000000E+00  0.00000000E+00
  0.00000000E+00  0.00000000E+00  0.00000000E+00
  0.00000000E+00  0.00000000E+00  0.00000000E+00
  0.00000000E+00  0.00000000E+00  0.00000000E+00
  0.00000000E+00  0.00000000E+00  0.00000000E+00
  0.00000000E+00  0.00000000E+00  0.00000000E+00
  0.00000000E+00  0.00000000E+00  0.00000000E+00
  0.00000000E+00  0.00000000E+00  0.00000000E+00
  0.00000000E+00  0.00000000E+00  0.00000000E+00
  0.00000000E+00  0.00000000E+00  0.00000000E+00
  0.00000000E+00  0.00000000E+00  0.00000000E+00
  0.00000000E+00  0.00000000E+00  0.00000000E+00
  0.00000000E+00  0.00000000E+00  0.00000000E+00
  0.00000000E+00  0.00000000E+00  0.00000000E+00
  0.00000000E+00  0.00000000E+00  0.00000000E+00
  0.00000000E+00  0.00000000E+00  0.00000000E+00
  0.00000000E+00  0.00000000E+00  0.00000000E+00
  0.00000000E+00  0.00000000E+00  0.00000000E+00
  0.00000000E+00  0.00000000E+00  0.00000000E+00
  0.00000000E+00  0.00000000E+00  0.00000000E+00
  0.00000000E+00  0.00000000E+00  0.00000000E+00
  0.00000000E+00  0.00000000E+00  0.00000000E+00
  0.00000000E+00  0.00000000E+00  0.00000000E+00
  0.00000000E+00  0.00000000E+00  0.00000000E+00
  0.00000000E+00  0.00000000E+00  0.00000000E+00
  0.00000000E+00  0.00000000E+00  0.00000000E+00
  0.00000000E+00  0.00000000E+00  0.00000000E+00
  0.00000000E+00  0.00000000E+00  0.00000000E+00
  0.00000000E+00  0.00000000E+00  0.00000000E+00
  0.00000000E+00  0.00000000E+00  0.00000000E+00
  0.00000000E+00  0.00000000E+00  0.00000000E+00
  0.00000000E+00  0.00000000E+00  0.00000000E+00
  0.00000000E+00  0.00000000E+00  0.00000000E+00
  0.00000000E+00  0.00000000E+00  0.00000000E+00
  0.00000000E+00  0.00000000E+00  0.00000000E+00
  0.00000000E+00  0.00000000E+00  0.00000000E+00
  0.00000000E+00  0.00000000E+00  0.00000000E+00
  0.00000000E+00  0.00000000E+00  0.00000000E+00
  0.00000000E+00  0.00000000E+00  0.00000000E+00
  0.00000000E+00  0.00000000E+00  0.00000000E+00
  0.00000000E+00  0.00000000E+00  0.00000000E+00
  0.00000000E+00  0.00000000E+00  0.00000000E+00
  0.00000000E+00  0.00000000E+00  0.00000000E+00
  0.00000000E+00  0.00000000E+00  0.00000000E+00
  0.00000000E+00  0.00000000E+00  0.00000000E+00
  0.00000000E+00  0.00000000E+00  0.00000000E+00
  0.00000000E+00  0.00000000E+00  0.00000000E+00
  0.00000000E+00  0.00000000E+00  0.00000000E+00
  0.00000000E+00  0.00000000E+00  0.00000000E+00
  0.00000000E+00  0.00000000E+00  0.00000000E+00
  0.00000000E+00  0.00000000E+00  0.00000000E+00
  0.00000000E+00  0.00000000E+00  0.00000000E+00
  0.00000000E+00  0.00000000E+00  0.00000000E+00
  0.00000000E+00  0.00000000E+00  0.00000000E+00
  0.00000000E+00  0.00000000E+00  0.00000000E+00
  0.00000000E+00  0.00000000E+00  0.00000000E+00
