#generated using str2pos                
    1.000000000000000     
    12.8962249110015748   -0.0033093524966616    0.0000987801486418
    -0.0033186320468229   12.8658714914457200   -0.0112853005127303
     0.0000957813467348   -0.0112857087297942   12.8611850987810108
   Ta   W 
    51    77
Direct
  0.3746038996008159  0.1227353581888401  0.1272714726004655
  0.7500642248938040  0.2499249910524110  0.2500240572009758
  0.1246510392276012  0.3769663193546838  0.1269369066175899
  0.5026410910842090  0.5004068014281807  0.2495574463856290
  0.7497980846422412  0.4998678279901167  0.2503278465175917
  0.1253174083389652  0.6250413126412202  0.1250263884190925
  0.5024733933786785  0.7496563776046862  0.2525146676028415
  0.3719627175376220  0.6264958093172480  0.1236543234867381
  0.7500622786820133  0.7501577778614926  0.2498979375845297
  0.1264442257051180  0.8739136270421007  0.1260988633035394
  0.3738201007936423  0.8759588327945960  0.1240422062482622
  0.7504646287152869  0.0001453699939062  0.2503164678365993
  0.1264627621918141  0.1240333122932110  0.3744928352622873
  0.3734032272205240  0.1260475816993192  0.3738691205776167
  0.7504990964264804  0.2501609609321908  0.4998281508189522
 -0.0021287578532861  0.2503642149547747  0.5016315232773342
  0.1266605580558113  0.3758133068413548  0.3740715911867956
  0.3737861376960673  0.3737413946851172  0.3764642042768448
  0.7505334373615064  0.5001307513709834  0.4999270642198670
  0.1252146312744686  0.6251434694419002  0.3753151938758301
  0.5014632288193482  0.7512356096501951  0.4990173875619004
  0.7497671540329692  0.7498491637495801  0.5002499086556833
  0.1253392307108617  0.8749902713654349  0.3751558100376727
  0.5010715117435051 -0.0011131480973949  0.5010810360683000
  0.7494386520696992 -0.0000047114636660  0.4997103007616037
  0.2486344441483574  0.2488854317459051  0.7514206437407750
  0.5001394783628667  0.2488979968712881  0.7507454794528946
  0.7497566601596500  0.2503356986698191  0.7499500350647278
 -0.0001350799929735  0.2504109671556726  0.7496040971905079
  0.3744393027451000  0.3769042434655950  0.6226228090238004
  0.7504435860882549  0.5003135313598227  0.7496761610040974
  0.1257406266575577  0.6254648926663074  0.6248746455146991
  0.3738240607873730  0.6239117010584352  0.6258845487186571
  0.7499161632160177  0.7498450276284462  0.7502167656969094
  0.1258234232249433  0.8737237158255482  0.6240459912927722
  0.5007496613123582  0.0007421017206335  0.7488747239683639
  0.7496438041513190 -0.0001200606146229  0.7498005238280171
 -0.0019724934602897  0.0016460265148124  0.7503140701197935
  0.2496305311702553  0.2499885519381374 -0.0027121841380948
  0.5003599211629560  0.2509330106109215 -0.0009059330546087
  0.7497094832143164  0.2500948198274760  0.0002033980343523
 -0.0008824975523586  0.2491659322501869 -0.0008401391000516
  0.5019933970733340  0.4979810630164250  0.0000608774160818
  0.7496630996995509  0.5003100424817363 -0.0000803123129262
  0.1253950812870459  0.6253642425450787  0.8746675672270214
  0.3732815713961664  0.6264392591614666  0.8737248019679886
  0.7502423543772376  0.7499210697503639 -0.0001220020278385
  0.1273680518090931  0.8723764829885526  0.8748737312142388
  0.3736461596718257  0.8734531429100879  0.8759076720178519
  0.7503109815923019 -0.0003046454045489  0.0003772971999941
 -0.0022826814317346  0.0016277357277802  0.0000737084224256
  0.2496825853011785  0.2499393764832369  0.2479309495270279
  0.1263255998778307  0.1244205082785576  0.1278998176067538
  0.5026275062139459  0.2506631335183752  0.2493118749094895
  0.6218727654750095  0.1238097565345573  0.1261671940889323
 -0.0028201045442167  0.2495478674834994  0.2496393682460088
  0.8763667473534847  0.1253174522374059  0.1271421091616712
  0.2519725223730748  0.5003288404886446  0.2500921030548515
  0.3725067125530384  0.3745607709636627  0.1270861756853736
  0.6246513468022327  0.3735321126803635  0.1261897865724581
 -0.0031589304124364  0.5005247860080921  0.2502585511781411
  0.8781529021967609  0.3762710191807198  0.1257708394606469
  0.2520798511490870  0.7500562537663303  0.2523622200548506
  0.6246987023159468  0.6262215904885119  0.1238347712263159
 -0.0029239076534798  0.7501056201521490  0.2503999457225805
  0.8789057822659346  0.6250682613674070  0.1251288277894394
  0.2498923942332282 -0.0002838075132238  0.2506241567414480
  0.5029106884804264 -0.0010300076974763  0.2511729327854714
  0.6224880407184562  0.8762435636185474  0.1240800494091993
 -0.0024030885531393  0.0004614875908273  0.2493429610251679
  0.8777656684394279  0.8739214188479607  0.1264460765617945
  0.2484338695288512  0.2488050377733589  0.5031017559154538
  0.5023416623715307  0.2489772272545206  0.5007322002184782
  0.6221333363227691  0.1262031715258652  0.3739297167406317
  0.8779612929209674  0.1240591672725178  0.3741095519878433
  0.2498145542550404  0.5002960550448931  0.5000858118817474
  0.5029061825956004  0.5011771499720867  0.4990640336432115
  0.6222567270590712  0.3736533623545980  0.3763048255947559
 -0.0023819954146684  0.4994442205814753  0.5009864346089170
  0.8779342430915588  0.3761364989402473  0.3743000403868438
  0.2530595627189414  0.7509944855632574  0.4990260931663203
  0.3724524376097567  0.6239848679207052  0.3759686419432855
  0.6251883015495618  0.6238776486274306  0.3764833347565090
 -0.0027017206620768  0.7497623873790967  0.4997166382787356
  0.8790429256242631  0.6254193539443980  0.3750118335834178
  0.2520379051707629 -0.0004791126333606  0.5017117973272300
  0.3725841218441751  0.8761046076173031  0.3744033995825095
  0.6249064762097923  0.8762256016703072  0.3740419637459518
 -0.0021337015247975  0.0007863320605968  0.5006405154471079
  0.8788842202295637  0.8746091031617218  0.3751927411699310
  0.1264564408737764  0.1231749477922252  0.6228814014465970
  0.3729559862589641  0.1250969957990002  0.6228095716621860
  0.6236431813351508  0.1263189534021471  0.6237919975959503
  0.8757250125635921  0.1242346953700254  0.6235983533635185
  0.2483941910939282  0.4969500690654376  0.7503657285243055
  0.1262195005415837  0.3776317417938949  0.6239640659427604
  0.5022947355076527  0.4992055934639715  0.7506593688100983
  0.6219280174035497  0.3762325914259175  0.6238212632151983
 -0.0018042232562093  0.4988387807009464  0.7499412042043886
  0.8766621831673124  0.3773737217975612  0.6250472292786664
  0.2508408087758516  0.7507260767263019  0.7483068394673014
  0.5029219246207830  0.7507986843363077  0.7486265009062115
  0.6224822592754228  0.6238731081181383  0.6260441936773884
 -0.0035318970495070  0.7496137493072241  0.7496392856575665
  0.8785706924271599  0.6253594411004826  0.6248170061748514
  0.2506324213610656  0.0028349149323355  0.7487689806662952
  0.3722203946710924  0.8738354268472018  0.6259333748245196
  0.6243584171383815  0.8737970025163766  0.6261941458520833
  0.8781768921898794  0.8736680163233402  0.6237030197294368
  0.1261642909198279  0.1231351492259390  0.8748802867063985
  0.3739036652716342  0.1218223788220359  0.8759144233732884
  0.6235907028109391  0.1238221289346085  0.8760993396989964
  0.8744050779794108  0.1254416701572541  0.8751692303020686
  0.2506078671151674  0.4967109274354096 -0.0010876551028856
  0.1245325379788079  0.3787139504335793  0.8750369493032754
  0.3736183104378914  0.3775716116759235  0.8732517704104340
  0.6243650098166652  0.3759743183701900  0.8736238724545040
 -0.0025716254385248  0.4993474558890004 -0.0009125273186888
  0.8767612538063034  0.3774801965310660  0.8750490327526392
  0.2496148037079478  0.7497935668164948  0.0001496645985305
  0.5038440299696698  0.7497530969645158  0.0001836450418904
  0.6225017576306598  0.6260656951806676  0.8735080350973474
 -0.0038398209014535  0.7498490089098667  0.0003479288535443
  0.8786290405444632  0.6247755579954686  0.8749911722195247
  0.2485062444485593  0.0030187564305484 -0.0009328860935272
  0.5023049932866900  0.0009050569021436 -0.0008343022296897
  0.6216973186294416  0.8738831365512418  0.8762845892497669
  0.8766503637797235  0.8726800908822363  0.8749301710297632
 
  0.00000000E+00  0.00000000E+00  0.00000000E+00
  0.00000000E+00  0.00000000E+00  0.00000000E+00
  0.00000000E+00  0.00000000E+00  0.00000000E+00
  0.00000000E+00  0.00000000E+00  0.00000000E+00
  0.00000000E+00  0.00000000E+00  0.00000000E+00
  0.00000000E+00  0.00000000E+00  0.00000000E+00
  0.00000000E+00  0.00000000E+00  0.00000000E+00
  0.00000000E+00  0.00000000E+00  0.00000000E+00
  0.00000000E+00  0.00000000E+00  0.00000000E+00
  0.00000000E+00  0.00000000E+00  0.00000000E+00
  0.00000000E+00  0.00000000E+00  0.00000000E+00
  0.00000000E+00  0.00000000E+00  0.00000000E+00
  0.00000000E+00  0.00000000E+00  0.00000000E+00
  0.00000000E+00  0.00000000E+00  0.00000000E+00
  0.00000000E+00  0.00000000E+00  0.00000000E+00
  0.00000000E+00  0.00000000E+00  0.00000000E+00
  0.00000000E+00  0.00000000E+00  0.00000000E+00
  0.00000000E+00  0.00000000E+00  0.00000000E+00
  0.00000000E+00  0.00000000E+00  0.00000000E+00
  0.00000000E+00  0.00000000E+00  0.00000000E+00
  0.00000000E+00  0.00000000E+00  0.00000000E+00
  0.00000000E+00  0.00000000E+00  0.00000000E+00
  0.00000000E+00  0.00000000E+00  0.00000000E+00
  0.00000000E+00  0.00000000E+00  0.00000000E+00
  0.00000000E+00  0.00000000E+00  0.00000000E+00
  0.00000000E+00  0.00000000E+00  0.00000000E+00
  0.00000000E+00  0.00000000E+00  0.00000000E+00
  0.00000000E+00  0.00000000E+00  0.00000000E+00
  0.00000000E+00  0.00000000E+00  0.00000000E+00
  0.00000000E+00  0.00000000E+00  0.00000000E+00
  0.00000000E+00  0.00000000E+00  0.00000000E+00
  0.00000000E+00  0.00000000E+00  0.00000000E+00
  0.00000000E+00  0.00000000E+00  0.00000000E+00
  0.00000000E+00  0.00000000E+00  0.00000000E+00
  0.00000000E+00  0.00000000E+00  0.00000000E+00
  0.00000000E+00  0.00000000E+00  0.00000000E+00
  0.00000000E+00  0.00000000E+00  0.00000000E+00
  0.00000000E+00  0.00000000E+00  0.00000000E+00
  0.00000000E+00  0.00000000E+00  0.00000000E+00
  0.00000000E+00  0.00000000E+00  0.00000000E+00
  0.00000000E+00  0.00000000E+00  0.00000000E+00
  0.00000000E+00  0.00000000E+00  0.00000000E+00
  0.00000000E+00  0.00000000E+00  0.00000000E+00
  0.00000000E+00  0.00000000E+00  0.00000000E+00
  0.00000000E+00  0.00000000E+00  0.00000000E+00
  0.00000000E+00  0.00000000E+00  0.00000000E+00
  0.00000000E+00  0.00000000E+00  0.00000000E+00
  0.00000000E+00  0.00000000E+00  0.00000000E+00
  0.00000000E+00  0.00000000E+00  0.00000000E+00
  0.00000000E+00  0.00000000E+00  0.00000000E+00
  0.00000000E+00  0.00000000E+00  0.00000000E+00
  0.00000000E+00  0.00000000E+00  0.00000000E+00
  0.00000000E+00  0.00000000E+00  0.00000000E+00
  0.00000000E+00  0.00000000E+00  0.00000000E+00
  0.00000000E+00  0.00000000E+00  0.00000000E+00
  0.00000000E+00  0.00000000E+00  0.00000000E+00
  0.00000000E+00  0.00000000E+00  0.00000000E+00
  0.00000000E+00  0.00000000E+00  0.00000000E+00
  0.00000000E+00  0.00000000E+00  0.00000000E+00
  0.00000000E+00  0.00000000E+00  0.00000000E+00
  0.00000000E+00  0.00000000E+00  0.00000000E+00
  0.00000000E+00  0.00000000E+00  0.00000000E+00
  0.00000000E+00  0.00000000E+00  0.00000000E+00
  0.00000000E+00  0.00000000E+00  0.00000000E+00
  0.00000000E+00  0.00000000E+00  0.00000000E+00
  0.00000000E+00  0.00000000E+00  0.00000000E+00
  0.00000000E+00  0.00000000E+00  0.00000000E+00
  0.00000000E+00  0.00000000E+00  0.00000000E+00
  0.00000000E+00  0.00000000E+00  0.00000000E+00
  0.00000000E+00  0.00000000E+00  0.00000000E+00
  0.00000000E+00  0.00000000E+00  0.00000000E+00
  0.00000000E+00  0.00000000E+00  0.00000000E+00
  0.00000000E+00  0.00000000E+00  0.00000000E+00
  0.00000000E+00  0.00000000E+00  0.00000000E+00
  0.00000000E+00  0.00000000E+00  0.00000000E+00
  0.00000000E+00  0.00000000E+00  0.00000000E+00
  0.00000000E+00  0.00000000E+00  0.00000000E+00
  0.00000000E+00  0.00000000E+00  0.00000000E+00
  0.00000000E+00  0.00000000E+00  0.00000000E+00
  0.00000000E+00  0.00000000E+00  0.00000000E+00
  0.00000000E+00  0.00000000E+00  0.00000000E+00
  0.00000000E+00  0.00000000E+00  0.00000000E+00
  0.00000000E+00  0.00000000E+00  0.00000000E+00
  0.00000000E+00  0.00000000E+00  0.00000000E+00
  0.00000000E+00  0.00000000E+00  0.00000000E+00
  0.00000000E+00  0.00000000E+00  0.00000000E+00
  0.00000000E+00  0.00000000E+00  0.00000000E+00
  0.00000000E+00  0.00000000E+00  0.00000000E+00
  0.00000000E+00  0.00000000E+00  0.00000000E+00
  0.00000000E+00  0.00000000E+00  0.00000000E+00
  0.00000000E+00  0.00000000E+00  0.00000000E+00
  0.00000000E+00  0.00000000E+00  0.00000000E+00
  0.00000000E+00  0.00000000E+00  0.00000000E+00
  0.00000000E+00  0.00000000E+00  0.00000000E+00
  0.00000000E+00  0.00000000E+00  0.00000000E+00
  0.00000000E+00  0.00000000E+00  0.00000000E+00
  0.00000000E+00  0.00000000E+00  0.00000000E+00
  0.00000000E+00  0.00000000E+00  0.00000000E+00
  0.00000000E+00  0.00000000E+00  0.00000000E+00
  0.00000000E+00  0.00000000E+00  0.00000000E+00
  0.00000000E+00  0.00000000E+00  0.00000000E+00
  0.00000000E+00  0.00000000E+00  0.00000000E+00
  0.00000000E+00  0.00000000E+00  0.00000000E+00
  0.00000000E+00  0.00000000E+00  0.00000000E+00
  0.00000000E+00  0.00000000E+00  0.00000000E+00
  0.00000000E+00  0.00000000E+00  0.00000000E+00
  0.00000000E+00  0.00000000E+00  0.00000000E+00
  0.00000000E+00  0.00000000E+00  0.00000000E+00
  0.00000000E+00  0.00000000E+00  0.00000000E+00
  0.00000000E+00  0.00000000E+00  0.00000000E+00
  0.00000000E+00  0.00000000E+00  0.00000000E+00
  0.00000000E+00  0.00000000E+00  0.00000000E+00
  0.00000000E+00  0.00000000E+00  0.00000000E+00
  0.00000000E+00  0.00000000E+00  0.00000000E+00
  0.00000000E+00  0.00000000E+00  0.00000000E+00
  0.00000000E+00  0.00000000E+00  0.00000000E+00
  0.00000000E+00  0.00000000E+00  0.00000000E+00
  0.00000000E+00  0.00000000E+00  0.00000000E+00
  0.00000000E+00  0.00000000E+00  0.00000000E+00
  0.00000000E+00  0.00000000E+00  0.00000000E+00
  0.00000000E+00  0.00000000E+00  0.00000000E+00
  0.00000000E+00  0.00000000E+00  0.00000000E+00
  0.00000000E+00  0.00000000E+00  0.00000000E+00
  0.00000000E+00  0.00000000E+00  0.00000000E+00
  0.00000000E+00  0.00000000E+00  0.00000000E+00
  0.00000000E+00  0.00000000E+00  0.00000000E+00
  0.00000000E+00  0.00000000E+00  0.00000000E+00
  0.00000000E+00  0.00000000E+00  0.00000000E+00
