#generated using str2pos                
    1.000000000000000     
    12.9857410209933750   -0.0122476280374306   -0.0213160708951121
    -0.0122515909880900   12.9974010459174547    0.0243235459616153
    -0.0213215843977367    0.0243292386170367   12.9901335507560933
   Ta   W 
    77    51
Direct
  0.1306374962764097  0.1242604330860882  0.1280256085230957
  0.3764757096433285  0.1255584577613087  0.1285075537947194
  0.7561094885187049  0.2476014629998583  0.2492185800862584
  0.6203959048708518  0.1255867334176564  0.1263889161736176
 -0.0007038457124814  0.2517008502243742  0.2497754754365220
  0.2466488539028059  0.5012188251552072  0.2471014747464878
  0.3786718040889074  0.3701070378244796  0.1267010340593858
  0.6232560555051080  0.3752306737472695  0.1261132611780860
  0.0033775360150656  0.4977995506498496  0.2470597750848049
  0.2510659002927821  0.7484658967641356  0.2435930171545149
  0.4954997944418566  0.7489562229804835  0.2453454100163654
  0.6287298137167083  0.6224038373181690  0.1250505550501237
  0.8709194706197225  0.6270141592932286  0.1263336257306960
  0.7538393846626710  0.0033689113599016  0.2510868392195820
  0.6273079972168584  0.8728941144204637  0.1261363085995862
 -0.0013654941607341  0.0019183432153004  0.2492755860799900
  0.8733240268663353  0.8702686196653782  0.1265867510933454
  0.2495872396928698  0.2521949163922881  0.5018344624840572
  0.1311202661800444  0.1228645611006832  0.3731567653546798
  0.5026310079162361  0.2515799183342639  0.5050557816954613
  0.3762197005402434  0.1220608299952489  0.3728240729937268
  0.7503784550361213  0.2468118589011852  0.5036755357817252
  0.6207075115427005  0.1234588585881790  0.3735450102373791
  0.0007271813619529  0.2474351560822476  0.5003087440833691
  0.2512254805835226  0.4970383819390603  0.4984135409520407
  0.4990090543738895  0.4962481693398531  0.5040921896015076
  0.3779166561644605  0.3720804869838097  0.3694878101260934
  0.6260160956041222  0.3768392002077109  0.3715127286065282
  0.8733103705559888  0.3809323456109330  0.3781313173731582
  0.1220328509938410  0.6290889743655850  0.3780849666531080
  0.3759933803717117  0.6259827340398314  0.3765762788576581
  0.6270762074247687  0.6247311228964868  0.3748137576271864
  0.8737743578945271  0.6263644049703134  0.3761517851440400
  0.1265271340538414  0.8746307970784160  0.3760516350450792
  0.3744142984953854  0.8770750568530488  0.3773196439405890
  0.7538473684483780  0.0029615911712535  0.5034404747176576
  0.6239365130170311  0.8734431532927789  0.3765662411845788
 -0.0015286735029265  0.0023789733755479  0.5042437706002804
  0.8758592690042492  0.8694258436117164  0.3755636554347491
  0.2515581296214776  0.2478489296950819  0.7503301200630457
  0.5013071055866026  0.2500515650038507  0.7504103782715005
  0.3753276650176687  0.1200404202906578  0.6213819963041647
  0.7486679086854632  0.2490118828898702  0.7522260019738219
 -0.0018877960084857  0.2459215856898680  0.7515791000853214
  0.1216333769495908  0.3803737144489314  0.6278640167439218
  0.4995867892440847  0.4959620817365716  0.7507484977028716
  0.7465804365831035  0.4964043339941632  0.7515022706525396
  0.8772311991862645  0.3804093801008245  0.6242564895170662
  0.2480744656560924  0.7541904341954290  0.7528108574374798
  0.1225832419706781  0.6251392449813827  0.6242503160543682
  0.3738537877480538  0.6293972139340412  0.6244972323912334
  0.6257619706379873  0.6292436077579474  0.6243803763894142
 -0.0010514270081973  0.7572233909119525  0.7507776969053287
  0.8740861428801235  0.6254739621592543  0.6233395029168658
  0.2475197818412395 -0.0000467728949836  0.7526634766323946
  0.5013077749162865  0.0015379381594557  0.7538685703534654
  0.3766514119489096  0.8744048794930752  0.6207621054773039
  0.7512589077553243  0.0020057240973426  0.7511405681900597
  0.6233105712988360  0.8718527890034004  0.6241888719742102
 -0.0003717302557062  0.0010765504831549  0.7504737462500047
  0.2502960760797380  0.2495048120680820 -0.0036492549133368
  0.7524858352898707  0.2490333878155674 -0.0016366686127570
 -0.0017088162759597  0.2500652663457330  0.0004711708377976
  0.2508226594552898  0.5010611072204141  0.0012622009620357
  0.1244254398206271  0.3790641499678159  0.8706837893687126
  0.4969606456218787  0.5000594320150247 -0.0043411323613119
 -0.0002066786493472  0.4984306491922199  0.0035961276787752
  0.2502012410024573  0.7504402093499729 -0.0001787188272679
  0.1224483597570022  0.6219587388043640  0.8708997968166856
  0.4955472552196906  0.7499528965317904 -0.0007877009430824
  0.6268456634498174  0.6270499668065314  0.8748910825514795
  0.0027908312205514  0.7524680504911810 -0.0013493773216677
  0.8718766913312251  0.6257547785136941  0.8751857495404098
  0.2507766931898265 -0.0027789383725751 -0.0032654833911963
  0.4987091422963116 -0.0028175023926935 -0.0037909778364752
  0.7508800856016413  0.0020459577057352 -0.0032979926388683
  0.0007754317579881  0.0003609048255315 -0.0021134365719978
  0.2483972038971157  0.2515942634376250  0.2498204546478692
  0.5015160261800095  0.2487836677184297  0.2501324476507732
  0.8762170503503997  0.1243114219873708  0.1246075762652694
  0.1273181188585471  0.3726326215739687  0.1243929338121510
  0.4985149950537195  0.5019656569368707  0.2479138460633575
  0.7519444617469861  0.4982148714792983  0.2488615607894968
  0.8723554896173442  0.3779630121108770  0.1253426374278575
  0.1226596730259988  0.6262238281692208  0.1248643886113892
  0.3761412320619551  0.6224275772523005  0.1242655753481139
  0.7489396608147945  0.7500216439000832  0.2504067967706293
  0.0030064985332836  0.7495434089094506  0.2478360745800180
  0.2500318544127686 -0.0036787278428375  0.2472587373712060
  0.1246809936353189  0.8762054772436628  0.1272767654227439
  0.4998457076570053 -0.0035526298717300  0.2479273035221335
  0.3752561322979626  0.8772122976619298  0.1264195383438425
  0.8765221334366858  0.1254196790776703  0.3762337551918669
  0.1252130915010473  0.3751269697737866  0.3759535912149621
  0.7475383863064046  0.4992198602627959  0.5021872525706489
  0.0008170488504354  0.5007926675307242  0.4984208863238190
  0.2481322461452486  0.7507248594571259  0.5008987135138799
  0.5002129558585029  0.7488406174903083  0.4990521372911435
  0.7510429369351217  0.7520505596018573  0.5018513621357038
 -0.0005460939099574  0.7537465405521950  0.5032622229735160
  0.2477740027057133  0.0005706546717273  0.5023662512676210
  0.5022465290916750  0.0011401036566034  0.5016525184777237
  0.1270853297950913  0.1247817452976702  0.6237475176372657
  0.6236680704067429  0.1226876155549974  0.6247808395393868
  0.8753640530358056  0.1259544165965686  0.6268435242962296
  0.2532206832978513  0.5004563029434685  0.7506474951201524
  0.3732482148839764  0.3754604100652256  0.6257167645844079
  0.6273515574878477  0.3761510310988308  0.6247410620896503
 -0.0032054199269729  0.5009603169094873  0.7519734813925720
  0.4984039938085829  0.7508549957229360  0.7536348070329176
  0.7507153387214365  0.7538230583545519  0.7508418434111900
  0.1259438494774930  0.8745389739842879  0.6217037829297031
  0.8729329510315963  0.8725052005119442  0.6248192653539706
  0.1251008598762869  0.1264871911563191  0.8762314513263313
  0.5007391837503254  0.2488133958197851 -0.0050186324834936
  0.3763854145662998  0.1255491093176030  0.8761125105679822
  0.6244065412758382  0.1254476827644150  0.8771542769883743
  0.8749720428270167  0.1252491586267360  0.8754822041325826
  0.3740828434484809  0.3745991130904481  0.8756276368645228
  0.7500893918846353  0.4959508202983776 -0.0017518491744954
  0.6248495397659105  0.3748199931139414  0.8781699114951380
  0.8751534268296012  0.3777412381278366  0.8745390589083948
  0.3740130589819126  0.6245743811789397  0.8713198825131167
  0.7493053854003923  0.7520587566427968 -0.0024829862476489
  0.1243328106678285  0.8749932912136013  0.8748248451089592
  0.3759451902970551  0.8736786692539145  0.8728880062089310
  0.6259738945547237  0.8717130413124514  0.8735355172564530
  0.8722555658482852  0.8734910002683023  0.8755311484135245
 
  0.00000000E+00  0.00000000E+00  0.00000000E+00
  0.00000000E+00  0.00000000E+00  0.00000000E+00
  0.00000000E+00  0.00000000E+00  0.00000000E+00
  0.00000000E+00  0.00000000E+00  0.00000000E+00
  0.00000000E+00  0.00000000E+00  0.00000000E+00
  0.00000000E+00  0.00000000E+00  0.00000000E+00
  0.00000000E+00  0.00000000E+00  0.00000000E+00
  0.00000000E+00  0.00000000E+00  0.00000000E+00
  0.00000000E+00  0.00000000E+00  0.00000000E+00
  0.00000000E+00  0.00000000E+00  0.00000000E+00
  0.00000000E+00  0.00000000E+00  0.00000000E+00
  0.00000000E+00  0.00000000E+00  0.00000000E+00
  0.00000000E+00  0.00000000E+00  0.00000000E+00
  0.00000000E+00  0.00000000E+00  0.00000000E+00
  0.00000000E+00  0.00000000E+00  0.00000000E+00
  0.00000000E+00  0.00000000E+00  0.00000000E+00
  0.00000000E+00  0.00000000E+00  0.00000000E+00
  0.00000000E+00  0.00000000E+00  0.00000000E+00
  0.00000000E+00  0.00000000E+00  0.00000000E+00
  0.00000000E+00  0.00000000E+00  0.00000000E+00
  0.00000000E+00  0.00000000E+00  0.00000000E+00
  0.00000000E+00  0.00000000E+00  0.00000000E+00
  0.00000000E+00  0.00000000E+00  0.00000000E+00
  0.00000000E+00  0.00000000E+00  0.00000000E+00
  0.00000000E+00  0.00000000E+00  0.00000000E+00
  0.00000000E+00  0.00000000E+00  0.00000000E+00
  0.00000000E+00  0.00000000E+00  0.00000000E+00
  0.00000000E+00  0.00000000E+00  0.00000000E+00
  0.00000000E+00  0.00000000E+00  0.00000000E+00
  0.00000000E+00  0.00000000E+00  0.00000000E+00
  0.00000000E+00  0.00000000E+00  0.00000000E+00
  0.00000000E+00  0.00000000E+00  0.00000000E+00
  0.00000000E+00  0.00000000E+00  0.00000000E+00
  0.00000000E+00  0.00000000E+00  0.00000000E+00
  0.00000000E+00  0.00000000E+00  0.00000000E+00
  0.00000000E+00  0.00000000E+00  0.00000000E+00
  0.00000000E+00  0.00000000E+00  0.00000000E+00
  0.00000000E+00  0.00000000E+00  0.00000000E+00
  0.00000000E+00  0.00000000E+00  0.00000000E+00
  0.00000000E+00  0.00000000E+00  0.00000000E+00
  0.00000000E+00  0.00000000E+00  0.00000000E+00
  0.00000000E+00  0.00000000E+00  0.00000000E+00
  0.00000000E+00  0.00000000E+00  0.00000000E+00
  0.00000000E+00  0.00000000E+00  0.00000000E+00
  0.00000000E+00  0.00000000E+00  0.00000000E+00
  0.00000000E+00  0.00000000E+00  0.00000000E+00
  0.00000000E+00  0.00000000E+00  0.00000000E+00
  0.00000000E+00  0.00000000E+00  0.00000000E+00
  0.00000000E+00  0.00000000E+00  0.00000000E+00
  0.00000000E+00  0.00000000E+00  0.00000000E+00
  0.00000000E+00  0.00000000E+00  0.00000000E+00
  0.00000000E+00  0.00000000E+00  0.00000000E+00
  0.00000000E+00  0.00000000E+00  0.00000000E+00
  0.00000000E+00  0.00000000E+00  0.00000000E+00
  0.00000000E+00  0.00000000E+00  0.00000000E+00
  0.00000000E+00  0.00000000E+00  0.00000000E+00
  0.00000000E+00  0.00000000E+00  0.00000000E+00
  0.00000000E+00  0.00000000E+00  0.00000000E+00
  0.00000000E+00  0.00000000E+00  0.00000000E+00
  0.00000000E+00  0.00000000E+00  0.00000000E+00
  0.00000000E+00  0.00000000E+00  0.00000000E+00
  0.00000000E+00  0.00000000E+00  0.00000000E+00
  0.00000000E+00  0.00000000E+00  0.00000000E+00
  0.00000000E+00  0.00000000E+00  0.00000000E+00
  0.00000000E+00  0.00000000E+00  0.00000000E+00
  0.00000000E+00  0.00000000E+00  0.00000000E+00
  0.00000000E+00  0.00000000E+00  0.00000000E+00
  0.00000000E+00  0.00000000E+00  0.00000000E+00
  0.00000000E+00  0.00000000E+00  0.00000000E+00
  0.00000000E+00  0.00000000E+00  0.00000000E+00
  0.00000000E+00  0.00000000E+00  0.00000000E+00
  0.00000000E+00  0.00000000E+00  0.00000000E+00
  0.00000000E+00  0.00000000E+00  0.00000000E+00
  0.00000000E+00  0.00000000E+00  0.00000000E+00
  0.00000000E+00  0.00000000E+00  0.00000000E+00
  0.00000000E+00  0.00000000E+00  0.00000000E+00
  0.00000000E+00  0.00000000E+00  0.00000000E+00
  0.00000000E+00  0.00000000E+00  0.00000000E+00
  0.00000000E+00  0.00000000E+00  0.00000000E+00
  0.00000000E+00  0.00000000E+00  0.00000000E+00
  0.00000000E+00  0.00000000E+00  0.00000000E+00
  0.00000000E+00  0.00000000E+00  0.00000000E+00
  0.00000000E+00  0.00000000E+00  0.00000000E+00
  0.00000000E+00  0.00000000E+00  0.00000000E+00
  0.00000000E+00  0.00000000E+00  0.00000000E+00
  0.00000000E+00  0.00000000E+00  0.00000000E+00
  0.00000000E+00  0.00000000E+00  0.00000000E+00
  0.00000000E+00  0.00000000E+00  0.00000000E+00
  0.00000000E+00  0.00000000E+00  0.00000000E+00
  0.00000000E+00  0.00000000E+00  0.00000000E+00
  0.00000000E+00  0.00000000E+00  0.00000000E+00
  0.00000000E+00  0.00000000E+00  0.00000000E+00
  0.00000000E+00  0.00000000E+00  0.00000000E+00
  0.00000000E+00  0.00000000E+00  0.00000000E+00
  0.00000000E+00  0.00000000E+00  0.00000000E+00
  0.00000000E+00  0.00000000E+00  0.00000000E+00
  0.00000000E+00  0.00000000E+00  0.00000000E+00
  0.00000000E+00  0.00000000E+00  0.00000000E+00
  0.00000000E+00  0.00000000E+00  0.00000000E+00
  0.00000000E+00  0.00000000E+00  0.00000000E+00
  0.00000000E+00  0.00000000E+00  0.00000000E+00
  0.00000000E+00  0.00000000E+00  0.00000000E+00
  0.00000000E+00  0.00000000E+00  0.00000000E+00
  0.00000000E+00  0.00000000E+00  0.00000000E+00
  0.00000000E+00  0.00000000E+00  0.00000000E+00
  0.00000000E+00  0.00000000E+00  0.00000000E+00
  0.00000000E+00  0.00000000E+00  0.00000000E+00
  0.00000000E+00  0.00000000E+00  0.00000000E+00
  0.00000000E+00  0.00000000E+00  0.00000000E+00
  0.00000000E+00  0.00000000E+00  0.00000000E+00
  0.00000000E+00  0.00000000E+00  0.00000000E+00
  0.00000000E+00  0.00000000E+00  0.00000000E+00
  0.00000000E+00  0.00000000E+00  0.00000000E+00
  0.00000000E+00  0.00000000E+00  0.00000000E+00
  0.00000000E+00  0.00000000E+00  0.00000000E+00
  0.00000000E+00  0.00000000E+00  0.00000000E+00
  0.00000000E+00  0.00000000E+00  0.00000000E+00
  0.00000000E+00  0.00000000E+00  0.00000000E+00
  0.00000000E+00  0.00000000E+00  0.00000000E+00
  0.00000000E+00  0.00000000E+00  0.00000000E+00
  0.00000000E+00  0.00000000E+00  0.00000000E+00
  0.00000000E+00  0.00000000E+00  0.00000000E+00
  0.00000000E+00  0.00000000E+00  0.00000000E+00
  0.00000000E+00  0.00000000E+00  0.00000000E+00
  0.00000000E+00  0.00000000E+00  0.00000000E+00
  0.00000000E+00  0.00000000E+00  0.00000000E+00
  0.00000000E+00  0.00000000E+00  0.00000000E+00
  0.00000000E+00  0.00000000E+00  0.00000000E+00
