#BCC aalvarado POSCAR generator         
    12.76000000000000     
     1.0188058435295109   -0.0008463755860038   -0.0001713088931623
    -0.0008456713363522    1.0168756606129723   -0.0002202801029955
    -0.0001712783497337   -0.0002201940623700    1.0169395826819321
   Ta   W 
    76    52
Direct
  0.4995634412941587  0.4998168421877732  0.5007639734103554
  0.6243423527124148  0.6254466563774489  0.6271917288469928
  0.6235142846937284  0.6236691274712562  0.3718415495010007
  0.3732997319073380  0.3768267526280389  0.3708974572073249
  0.3720640102311780  0.6266739059759914  0.6280721159144543
  0.7489040514300859  0.7498450584023116  0.7513354141882583
  0.7555502142294284  0.7472943631009896  0.4979424103422102
  0.5007099700239892  0.5023285225972366  0.7531072261771358
  0.4982620810745257  0.7495942083053289  0.5013437711217306
  0.7537494268597029  0.7468987341462403  0.2494767988411251
  0.5015193030349416  0.2504771847023017  0.2494528102928214
  0.5003881233150520  0.2498381453193013  0.4991735172796017
  0.2449109615089874  0.2498592845196434  0.5004087987040274
  0.2448997634268742  0.5001131205804318  0.5011118686803098
  0.7509446895287420  0.2486972810463169  0.7476054243608943
  0.2447635158995730  0.2508524779598648  0.7481242144784926
  0.8780366583443923  0.8744498367490652  0.8748638011746876
  0.8755274927146927  0.8754847111764693  0.6249265815847973
  0.8758824717004108  0.6256434890551160  0.8725998791475146
  0.6242950209897149  0.8752417483208631  0.6221412609983615
  0.6245687029841864  0.8764949584401346  0.3743648000991221
  0.8734093621036867  0.3721339784687591  0.3721331964598804
  0.8714399435828099  0.3765496096810610  0.8748099863710372
  0.6249329268236780  0.3728490697225927  0.8751973414113506
  0.3743078533201262  0.3750155649616607  0.8772586699186855
  0.3735377758620149  0.6261850270274130  0.8755615344470858
  0.3751366358840412  0.8712299996337000  0.3753417060998912
  0.3764749974251357  0.8723251493092047  0.8750138327805441
  0.8765795134882320  0.8769148016254258  0.1250788632079218
  0.6233606595990034  0.8749243726127598  0.1261755137334913
  0.3725861092268197  0.3763684698207604  0.1241607310914965
  0.3744636236918564  0.6245697326810660  0.1271831448499709
  0.8743997153557405  0.1257317447440229  0.1264028523818337
  0.6260316199668368  0.1256317043954149  0.1237022328459139
  0.8721502994456822  0.1260275577309780  0.3731845521498039
  0.6291221481829287  0.1226442100456328  0.3747189122716096
  0.3740782285781329  0.1278189472388417  0.1222604424468623
  0.3750662850751187  0.1242541771148081  0.3749849756527056
  0.8724347355649962  0.1233381157762163  0.6204832649961625
  0.3770311082132530  0.1247818447956354  0.6255631358138745
  0.1245113872815652  0.1288209123558192  0.1244199708581892
  0.1283711405613746  0.3752565166950832  0.1264486497422126
  0.1284017988885028  0.6242329890701264  0.1277033330042498
  0.8752734726893808  0.1252801712467696  0.8776313986587415
  0.6215193325219431  0.1279282732013253  0.8780245575415501
  0.3759418116074466  0.1272540073829765  0.8772288990702493
  0.1248965748551999  0.1255961179263601  0.8794990536312128
  0.0038203373170326 -0.0001219154469448  0.7475813882134530
  0.0029475448191334  0.7488074482359667  0.0008090568126038
  0.7485719308763654  0.7474413520038986  0.0005320130994246
  0.7463138795567322 -0.0003409148829148  0.7509172201743457
  0.7482331017707801 -0.0027848133371475 -0.0023737176159220
  0.0037195898048185 -0.0018901656649651  0.4980218495929681
  0.0016500505222030  0.7484022362432000  0.4984673481670609
  0.0008107453083503  0.5012174704934589  0.5007270627656506
  0.0020335515170466  0.5002659319852462  0.7479521947654202
 -0.0010694178313746  0.5013099499532367  0.0006030202521255
  0.7490397728583092  0.5026260304300727  0.0036152971441493
  0.5044285011828976  0.5026848529211958  0.0010739101008962
  0.5002765139227509 -0.0019504787680886  0.7493996145541416
  0.0036990589519690 -0.0025181755931635  0.2529539163161031
 -0.0012899710564858  0.5016639762965258  0.2516021942057861
  0.4964455391001194 -0.0003236702265269  0.2480625000844321
  0.0031292862583001  0.2512276058923945  0.5006082657153607
  0.0013797253422101  0.2530185792133789  0.7467036165515365
 -0.0010277667095568  0.2555136779563061 -0.0005042470275626
  0.2478593417087827  0.7523314403789462  0.0002908912767499
  0.2479615730410080 -0.0029863610606198  0.2501096704438416
  0.2465693645528096 -0.0017609389464887  0.5003362377579361
  0.2484329368558227 -0.0028190228586456  0.7480704272053519
  0.2490940824656474 -0.0049407840967042  0.0016330519485193
  0.6287047390388789  0.3746092006828884  0.3727775049647420
  0.6260280796834253  0.3746259029780372  0.6265213192508775
  0.3754333343917921  0.3752909440689332  0.6289307026077735
  0.3735472354877748  0.6256183414261597  0.3717961064386649
  0.7548299584531465  0.5021257193077561  0.4999941382313181
  0.7519590992778791  0.5015982951528764  0.7495463117460872
  0.5000166029823272  0.7512084028039008  0.7516833511688842
  0.7524959230954251  0.5016202670427398  0.2469547444578426
  0.5025500847005050  0.4995428291871934  0.2471953281138354
  0.5001478911295590  0.7495989309889616  0.2477575367267436
  0.7499563366850494  0.2523461348295879  0.2472834564298592
  0.7512296837449012  0.2503492088804430  0.5010613860495731
  0.2484163604636623  0.2494541519472965  0.2523518647086727
  0.2475128094651362  0.5007974561499058  0.2525213987580103
  0.5004280602474702  0.2488280660038154  0.7491077612664797
  0.2455368950449253  0.5011012384081829  0.7504106682527593
  0.2479404701066336  0.7514089344948812  0.2504560346597786
  0.2463808569917676  0.7502172051858711  0.5014833510287870
  0.2474258976497554  0.7504169817349180  0.7499436210123153
  0.8766629438591061  0.6255446855643212  0.6272096340192984
  0.6241461748037921  0.6256939053286480  0.8750934434241334
  0.6213034312988159  0.8741690285926389  0.8764494648282470
  0.8752907450682540  0.8757373379758904  0.3735037015908094
  0.8765429415674617  0.6239824437511815  0.3731590836748960
  0.8727904569745953  0.3747029111118497  0.6236657124332055
  0.3747139350828018  0.8727533512915421  0.6247952533242813
  0.8764183741154983  0.6252423155970072  0.1264071008876032
  0.6226310526934572  0.6252612754197515  0.1270239992389388
  0.8736082599141944  0.3737214327996687  0.1268144652027451
  0.6259397537550098  0.3748609035809831  0.1256800249604781
  0.3768564760291588  0.8722934758706873  0.1247476091957517
  0.6245447000107257  0.1244950710700571  0.6224139521823566
  0.1241165525466009  0.1262348056697393  0.3718878159700673
  0.1247713820576563  0.3749065137731595  0.3714635795010543
  0.1246576673164535  0.1239645989793435  0.6246899902844660
  0.1254060858457359  0.3778914846098722  0.6257076141716140
  0.1270640821657845  0.6263245784178131  0.3735750544385412
  0.1269976984818419  0.6271876492433011  0.6268945148719258
  0.1274036589226570  0.3774316827659517  0.8771912764088061
  0.1266704733200411  0.6254010204816203  0.8739107455562949
  0.1240849651198697  0.8732461754422368  0.1266541461788809
  0.1265783364811476  0.8709474940606055  0.3749070315904968
  0.1258967757183300  0.8706271401957788  0.6252290187243286
  0.1244784829354808  0.8737008933770638  0.8739132223703190
  0.0019071755652029 -0.0016625442119738  0.0008011210609816
  0.0031279397258945  0.7487029374780610  0.7482995332649365
  0.7510655681916329 -0.0016499339853111  0.4996756675765963
  0.5009560287154359  0.7490344693080949  0.0001384646595200
  0.4988896611969083 -0.0006215430071235  0.5017346419433565
  0.4989562647362703 -0.0026934215337560 -0.0001025687261731
  0.0004954322344729  0.7493979100992371  0.2524255130127339
  0.7518836429370448 -0.0022177077482097  0.2497342084544638
  0.0002439757968293  0.2515191613346913  0.2512951020540898
  0.7504979876234039  0.2532194635617944  0.0014556025129522
  0.5009539494871089  0.2529302936892033  0.0024469757627621
  0.2482754571613329  0.2516752492309312 -0.0011608358394070
  0.2484465920686741  0.5020024940911426 -0.0016164029314806
 
  0.00000000E+00  0.00000000E+00  0.00000000E+00
  0.00000000E+00  0.00000000E+00  0.00000000E+00
  0.00000000E+00  0.00000000E+00  0.00000000E+00
  0.00000000E+00  0.00000000E+00  0.00000000E+00
  0.00000000E+00  0.00000000E+00  0.00000000E+00
  0.00000000E+00  0.00000000E+00  0.00000000E+00
  0.00000000E+00  0.00000000E+00  0.00000000E+00
  0.00000000E+00  0.00000000E+00  0.00000000E+00
  0.00000000E+00  0.00000000E+00  0.00000000E+00
  0.00000000E+00  0.00000000E+00  0.00000000E+00
  0.00000000E+00  0.00000000E+00  0.00000000E+00
  0.00000000E+00  0.00000000E+00  0.00000000E+00
  0.00000000E+00  0.00000000E+00  0.00000000E+00
  0.00000000E+00  0.00000000E+00  0.00000000E+00
  0.00000000E+00  0.00000000E+00  0.00000000E+00
  0.00000000E+00  0.00000000E+00  0.00000000E+00
  0.00000000E+00  0.00000000E+00  0.00000000E+00
  0.00000000E+00  0.00000000E+00  0.00000000E+00
  0.00000000E+00  0.00000000E+00  0.00000000E+00
  0.00000000E+00  0.00000000E+00  0.00000000E+00
  0.00000000E+00  0.00000000E+00  0.00000000E+00
  0.00000000E+00  0.00000000E+00  0.00000000E+00
  0.00000000E+00  0.00000000E+00  0.00000000E+00
  0.00000000E+00  0.00000000E+00  0.00000000E+00
  0.00000000E+00  0.00000000E+00  0.00000000E+00
  0.00000000E+00  0.00000000E+00  0.00000000E+00
  0.00000000E+00  0.00000000E+00  0.00000000E+00
  0.00000000E+00  0.00000000E+00  0.00000000E+00
  0.00000000E+00  0.00000000E+00  0.00000000E+00
  0.00000000E+00  0.00000000E+00  0.00000000E+00
  0.00000000E+00  0.00000000E+00  0.00000000E+00
  0.00000000E+00  0.00000000E+00  0.00000000E+00
  0.00000000E+00  0.00000000E+00  0.00000000E+00
  0.00000000E+00  0.00000000E+00  0.00000000E+00
  0.00000000E+00  0.00000000E+00  0.00000000E+00
  0.00000000E+00  0.00000000E+00  0.00000000E+00
  0.00000000E+00  0.00000000E+00  0.00000000E+00
  0.00000000E+00  0.00000000E+00  0.00000000E+00
  0.00000000E+00  0.00000000E+00  0.00000000E+00
  0.00000000E+00  0.00000000E+00  0.00000000E+00
  0.00000000E+00  0.00000000E+00  0.00000000E+00
  0.00000000E+00  0.00000000E+00  0.00000000E+00
  0.00000000E+00  0.00000000E+00  0.00000000E+00
  0.00000000E+00  0.00000000E+00  0.00000000E+00
  0.00000000E+00  0.00000000E+00  0.00000000E+00
  0.00000000E+00  0.00000000E+00  0.00000000E+00
  0.00000000E+00  0.00000000E+00  0.00000000E+00
  0.00000000E+00  0.00000000E+00  0.00000000E+00
  0.00000000E+00  0.00000000E+00  0.00000000E+00
  0.00000000E+00  0.00000000E+00  0.00000000E+00
  0.00000000E+00  0.00000000E+00  0.00000000E+00
  0.00000000E+00  0.00000000E+00  0.00000000E+00
  0.00000000E+00  0.00000000E+00  0.00000000E+00
  0.00000000E+00  0.00000000E+00  0.00000000E+00
  0.00000000E+00  0.00000000E+00  0.00000000E+00
  0.00000000E+00  0.00000000E+00  0.00000000E+00
  0.00000000E+00  0.00000000E+00  0.00000000E+00
  0.00000000E+00  0.00000000E+00  0.00000000E+00
  0.00000000E+00  0.00000000E+00  0.00000000E+00
  0.00000000E+00  0.00000000E+00  0.00000000E+00
  0.00000000E+00  0.00000000E+00  0.00000000E+00
  0.00000000E+00  0.00000000E+00  0.00000000E+00
  0.00000000E+00  0.00000000E+00  0.00000000E+00
  0.00000000E+00  0.00000000E+00  0.00000000E+00
  0.00000000E+00  0.00000000E+00  0.00000000E+00
  0.00000000E+00  0.00000000E+00  0.00000000E+00
  0.00000000E+00  0.00000000E+00  0.00000000E+00
  0.00000000E+00  0.00000000E+00  0.00000000E+00
  0.00000000E+00  0.00000000E+00  0.00000000E+00
  0.00000000E+00  0.00000000E+00  0.00000000E+00
  0.00000000E+00  0.00000000E+00  0.00000000E+00
  0.00000000E+00  0.00000000E+00  0.00000000E+00
  0.00000000E+00  0.00000000E+00  0.00000000E+00
  0.00000000E+00  0.00000000E+00  0.00000000E+00
  0.00000000E+00  0.00000000E+00  0.00000000E+00
  0.00000000E+00  0.00000000E+00  0.00000000E+00
  0.00000000E+00  0.00000000E+00  0.00000000E+00
  0.00000000E+00  0.00000000E+00  0.00000000E+00
  0.00000000E+00  0.00000000E+00  0.00000000E+00
  0.00000000E+00  0.00000000E+00  0.00000000E+00
  0.00000000E+00  0.00000000E+00  0.00000000E+00
  0.00000000E+00  0.00000000E+00  0.00000000E+00
  0.00000000E+00  0.00000000E+00  0.00000000E+00
  0.00000000E+00  0.00000000E+00  0.00000000E+00
  0.00000000E+00  0.00000000E+00  0.00000000E+00
  0.00000000E+00  0.00000000E+00  0.00000000E+00
  0.00000000E+00  0.00000000E+00  0.00000000E+00
  0.00000000E+00  0.00000000E+00  0.00000000E+00
  0.00000000E+00  0.00000000E+00  0.00000000E+00
  0.00000000E+00  0.00000000E+00  0.00000000E+00
  0.00000000E+00  0.00000000E+00  0.00000000E+00
  0.00000000E+00  0.00000000E+00  0.00000000E+00
  0.00000000E+00  0.00000000E+00  0.00000000E+00
  0.00000000E+00  0.00000000E+00  0.00000000E+00
  0.00000000E+00  0.00000000E+00  0.00000000E+00
  0.00000000E+00  0.00000000E+00  0.00000000E+00
  0.00000000E+00  0.00000000E+00  0.00000000E+00
  0.00000000E+00  0.00000000E+00  0.00000000E+00
  0.00000000E+00  0.00000000E+00  0.00000000E+00
  0.00000000E+00  0.00000000E+00  0.00000000E+00
  0.00000000E+00  0.00000000E+00  0.00000000E+00
  0.00000000E+00  0.00000000E+00  0.00000000E+00
  0.00000000E+00  0.00000000E+00  0.00000000E+00
  0.00000000E+00  0.00000000E+00  0.00000000E+00
  0.00000000E+00  0.00000000E+00  0.00000000E+00
  0.00000000E+00  0.00000000E+00  0.00000000E+00
  0.00000000E+00  0.00000000E+00  0.00000000E+00
  0.00000000E+00  0.00000000E+00  0.00000000E+00
  0.00000000E+00  0.00000000E+00  0.00000000E+00
  0.00000000E+00  0.00000000E+00  0.00000000E+00
  0.00000000E+00  0.00000000E+00  0.00000000E+00
  0.00000000E+00  0.00000000E+00  0.00000000E+00
  0.00000000E+00  0.00000000E+00  0.00000000E+00
  0.00000000E+00  0.00000000E+00  0.00000000E+00
  0.00000000E+00  0.00000000E+00  0.00000000E+00
  0.00000000E+00  0.00000000E+00  0.00000000E+00
  0.00000000E+00  0.00000000E+00  0.00000000E+00
  0.00000000E+00  0.00000000E+00  0.00000000E+00
  0.00000000E+00  0.00000000E+00  0.00000000E+00
  0.00000000E+00  0.00000000E+00  0.00000000E+00
  0.00000000E+00  0.00000000E+00  0.00000000E+00
  0.00000000E+00  0.00000000E+00  0.00000000E+00
  0.00000000E+00  0.00000000E+00  0.00000000E+00
  0.00000000E+00  0.00000000E+00  0.00000000E+00
  0.00000000E+00  0.00000000E+00  0.00000000E+00
  0.00000000E+00  0.00000000E+00  0.00000000E+00
  0.00000000E+00  0.00000000E+00  0.00000000E+00
  0.00000000E+00  0.00000000E+00  0.00000000E+00
