#BCC aalvarado POSCAR generator         
    12.76000000000000     
     1.0011869019038353   -0.0000032544954599    0.0000157832829703
    -0.0000032577112262    1.0009178224194206    0.0000623199744635
     0.0000157800464341    0.0000623210215633    1.0010217225220548
   Ta   W 
    25   103
Direct
  0.7498719915796759  0.5000483632028975  0.5001596442548714
  0.4995054594055960  0.7501407019143980  0.5002052792732623
  0.5004407250546260  0.7503550078561798  0.7499916409076103
  0.7491063089833989  0.4994586087379142  0.2512112333320790
  0.4999829513555208  0.2498462079653031  0.4999761207882781
  0.2510509502666063  0.2510531650963228  0.7493987492874594
  0.2498330970809965  0.5002767306439857  0.7496943820276910
  0.8720421209438257  0.8743521907337657  0.3745188984698971
  0.8740208476198408  0.3743485044636522  0.8743016022763109
  0.8753567894943197  0.6263153383094080  0.1244770414853353
  0.3753095763320614  0.8747940287286061  0.1251290003174455
  0.6252527464132714  0.1237929052697837  0.1252519592202886
  0.8725835827803278  0.1255003420774294  0.3744586634044394
  0.1278435085116184  0.1264326597500528  0.3736684766329175
  0.1241694861764237  0.1252183874062646  0.8760956586393763
 -0.0012486848997053 -0.0011263303378730  0.0002223521612487
  0.0009055755466863 -0.0011148503782787  0.5025389185492939
  0.0011482779744987  0.7486904024362259  0.5014287835091189
  0.0018818895580846  0.5003870132104411 -0.0000267796717029
  0.4994823902160554  0.5000311531851160  0.0001021546537454
  0.0010202258045943 -0.0008314929886620  0.2469553092744588
  0.0001205482842490  0.2520986676904979  0.5015163425000541
  0.4992214176726026  0.2509935988789992 -0.0006730398539107
  0.2513420673680326 -0.0007798044287838  0.7490885434295569
  0.4998965021276213  0.4999342997517561  0.4999199607485498
  0.6267592561446951  0.6253392220735184  0.6269368671847497
  0.6241452599717163  0.6266462434648442  0.3735026581164356
  0.6242605405235396  0.3735265139446275  0.3739168323371087
  0.3733962303809387  0.3751011293782481  0.3731467289173075
  0.6259502786906799  0.3736600650064741  0.6271740863859140
  0.3751579386100202  0.3748948298897868  0.6243964750402969
  0.3731419175147645  0.6250971509455761  0.3732267422132382
  0.3733106093962412  0.6253366187107728  0.6248192250285206
  0.7501003102481569  0.7503160253866641  0.7508272123356404
  0.7492134687622328  0.7491900582356594  0.5011299996342694
  0.7496096505904756  0.5005705207328537  0.7490466377722510
  0.4998039765898100  0.5004413662963763  0.7502981020908477
  0.7480817940403667  0.7495368287345778  0.2492380089811420
  0.4992732706350300  0.5001844130755168  0.2497489686850697
  0.4999634948756958  0.7495819631445563  0.2505901497496071
  0.7494542770743730  0.2514852168932984  0.2496441578909390
  0.4988911961375295  0.2504190238812029  0.2506555354824511
  0.7488942253179467  0.2507152191566913  0.5011814701303382
  0.2510032734436620  0.2516653997754700  0.2491077658179280
  0.2513079891880494  0.2510242746800857  0.4999884918529132
  0.2500698591324442  0.5001571363448155  0.2502968655053988
  0.2501128852308429  0.5006017974703387  0.4996788539567373
  0.7491656398785171  0.2488750565575610  0.7497499791726934
  0.5005471319712521  0.2496748935573657  0.7497350562371841
  0.2500652771180551  0.7485586133207381  0.2502474483117286
  0.2500792273350387  0.7496861692479734  0.4996038936965806
  0.2498307659177474  0.7495992275452349  0.7502194559111192
  0.8738576006136042  0.8743506756905738  0.8743781075721513
  0.8734589301997311  0.8746696099981426  0.6271653750625071
  0.8755469047363352  0.6250090879531721  0.6269356785506559
  0.8744954896435345  0.6257986154209384  0.8745540207898613
  0.6261893893595815  0.6256497653504657  0.8754134068610244
  0.6261242148829743  0.8768374802838911  0.6255356768392774
  0.6259817554603521  0.8755536619525557  0.8756844227058981
  0.8762318506127028  0.6256855297429937  0.3744886243350259
  0.6247199418982387  0.8757569283679668  0.3744198603920505
  0.8760058148722326  0.3744494163037054  0.3746679651243970
  0.8750618073664712  0.3752480344960470  0.6269084569781957
  0.6266600944654803  0.3749358496499042  0.8739154118697555
  0.3753902711991162  0.3753698971371207  0.8754921653773632
  0.3744397382495762  0.6259293651440259  0.8761477807789095
  0.3751888071284898  0.8755598138155395  0.3737263564507248
  0.3749214427676425  0.8758898552520976  0.6240604405175860
  0.3755786812279546  0.8747906872084174  0.8768351990899785
  0.8736620311383354  0.8734506634057169  0.1241021118887525
  0.6248450044874493  0.6265282710893023  0.1245034140054560
  0.6242214030560745  0.8752799935174664  0.1245963470227682
  0.8757514528980296  0.3742935353260863  0.1243985252736569
  0.6251086719587458  0.3739506914723374  0.1254103320600129
  0.3732121299757645  0.3752701859247099  0.1264859305301511
  0.3741500265994256  0.6258620937619199  0.1257275982501503
  0.8732024004887730  0.1261092737068062  0.1243695967530801
  0.6246501162662502  0.1238462339699523  0.3744748182370971
  0.3750637210086968  0.1241167359640508  0.1259786783068349
  0.3749721616704609  0.1243723377702947  0.3743728701156144
  0.8726006567993039  0.1249463214618831  0.6266314454165788
  0.6255097245936214  0.1240783555767578  0.6259790550875844
  0.3769965733604668  0.1241543949783442  0.6239206200954224
  0.1264163177057727  0.1265664686597618  0.1245350733915940
  0.1259542279742153  0.3750780061783779  0.1261439108719749
  0.1260089376379723  0.3764959259630917  0.3738375242221070
  0.1251409862456165  0.1251242608291111  0.6251807891224834
  0.1241106855314811  0.3768406950886649  0.6237147822607580
  0.1257240310667510  0.6251421851315304  0.1258754195743371
  0.1262906000656197  0.6238669926100912  0.3743772624969826
  0.1245915842200195  0.6249727713253533  0.6249728883250097
  0.8740285924541885  0.1252144261498802  0.8742926383267066
  0.6257602800609653  0.1237555587426670  0.8744444628330096
  0.3761120239892706  0.1241051399204239  0.8757267768823122
  0.1238316613420779  0.3748598504026632  0.8761079113625302
  0.1250375943710142  0.6266171892886252  0.8752349053598083
  0.1270534325023499  0.8732660655589501  0.1243759893098828
  0.1274408017119321  0.8734956807542127  0.3742342361437244
  0.1257434805254672  0.8733492025767988  0.6262447478408024
  0.1245712183499689  0.8735692602400665  0.8751361558431699
 -0.0011076684810345 -0.0013961501082113  0.7503707960246032
 -0.0004686526230127  0.7495638346065709  0.7500411953567570
  0.0006176871033685  0.7503551747339262 -0.0013933840442706
  0.7492857713290800  0.7510859679396689 -0.0011423518533379
  0.7494399154098025 -0.0000996044271130  0.7502585257485984
  0.7501563013933994 -0.0011315513751971 -0.0016707015025005
  0.7477308157113292 -0.0001107815468707  0.5022419434640881
  0.0002265840607375  0.5003412429431225  0.5001786871248078
  0.0006142894181254  0.5012301767924573  0.7495491777773770
  0.7485689953213720  0.5005580466199482 -0.0001487800210981
  0.5003975838750490  0.7492077903737485 -0.0007987797998044
  0.4999873163441027  0.0001838258962288  0.5000818358871673
  0.5007246355545895 -0.0002843396030411  0.7496195401718151
  0.5002765672757964 -0.0000438717199685 -0.0013442832005539
  0.0017119247737723  0.7491758206494058  0.2499876787081645
  0.7482143139919021 -0.0007786712218429  0.2489908035548124
  0.0012800238231897  0.4995196544644775  0.2505991332250190
  0.4997443190857492 -0.0002683007178664  0.2513700747027957
  0.0005294831673735  0.2519784827303275  0.2488372425461965
 -0.0006078357170857  0.2501832419710974  0.7489435304797815
 -0.0001375480050006  0.2501575844766476  0.0011290203311904
  0.7494702461844686  0.2493849014225420 -0.0005722696767064
  0.2509207414107845  0.2508914857770796  0.0009870973597316
  0.2504474159238363  0.5005867195806625  0.0002527200480344
  0.2495167939558539  0.7491543828468229 -0.0001963074537187
  0.2511591785177697 -0.0000392254768905  0.2500510961809059
  0.2518178809530837 -0.0009699451201878  0.5006242296598351
  0.2501375591308498 -0.0005997102472303 -0.0002818013614907
 
  0.00000000E+00  0.00000000E+00  0.00000000E+00
  0.00000000E+00  0.00000000E+00  0.00000000E+00
  0.00000000E+00  0.00000000E+00  0.00000000E+00
  0.00000000E+00  0.00000000E+00  0.00000000E+00
  0.00000000E+00  0.00000000E+00  0.00000000E+00
  0.00000000E+00  0.00000000E+00  0.00000000E+00
  0.00000000E+00  0.00000000E+00  0.00000000E+00
  0.00000000E+00  0.00000000E+00  0.00000000E+00
  0.00000000E+00  0.00000000E+00  0.00000000E+00
  0.00000000E+00  0.00000000E+00  0.00000000E+00
  0.00000000E+00  0.00000000E+00  0.00000000E+00
  0.00000000E+00  0.00000000E+00  0.00000000E+00
  0.00000000E+00  0.00000000E+00  0.00000000E+00
  0.00000000E+00  0.00000000E+00  0.00000000E+00
  0.00000000E+00  0.00000000E+00  0.00000000E+00
  0.00000000E+00  0.00000000E+00  0.00000000E+00
  0.00000000E+00  0.00000000E+00  0.00000000E+00
  0.00000000E+00  0.00000000E+00  0.00000000E+00
  0.00000000E+00  0.00000000E+00  0.00000000E+00
  0.00000000E+00  0.00000000E+00  0.00000000E+00
  0.00000000E+00  0.00000000E+00  0.00000000E+00
  0.00000000E+00  0.00000000E+00  0.00000000E+00
  0.00000000E+00  0.00000000E+00  0.00000000E+00
  0.00000000E+00  0.00000000E+00  0.00000000E+00
  0.00000000E+00  0.00000000E+00  0.00000000E+00
  0.00000000E+00  0.00000000E+00  0.00000000E+00
  0.00000000E+00  0.00000000E+00  0.00000000E+00
  0.00000000E+00  0.00000000E+00  0.00000000E+00
  0.00000000E+00  0.00000000E+00  0.00000000E+00
  0.00000000E+00  0.00000000E+00  0.00000000E+00
  0.00000000E+00  0.00000000E+00  0.00000000E+00
  0.00000000E+00  0.00000000E+00  0.00000000E+00
  0.00000000E+00  0.00000000E+00  0.00000000E+00
  0.00000000E+00  0.00000000E+00  0.00000000E+00
  0.00000000E+00  0.00000000E+00  0.00000000E+00
  0.00000000E+00  0.00000000E+00  0.00000000E+00
  0.00000000E+00  0.00000000E+00  0.00000000E+00
  0.00000000E+00  0.00000000E+00  0.00000000E+00
  0.00000000E+00  0.00000000E+00  0.00000000E+00
  0.00000000E+00  0.00000000E+00  0.00000000E+00
  0.00000000E+00  0.00000000E+00  0.00000000E+00
  0.00000000E+00  0.00000000E+00  0.00000000E+00
  0.00000000E+00  0.00000000E+00  0.00000000E+00
  0.00000000E+00  0.00000000E+00  0.00000000E+00
  0.00000000E+00  0.00000000E+00  0.00000000E+00
  0.00000000E+00  0.00000000E+00  0.00000000E+00
  0.00000000E+00  0.00000000E+00  0.00000000E+00
  0.00000000E+00  0.00000000E+00  0.00000000E+00
  0.00000000E+00  0.00000000E+00  0.00000000E+00
  0.00000000E+00  0.00000000E+00  0.00000000E+00
  0.00000000E+00  0.00000000E+00  0.00000000E+00
  0.00000000E+00  0.00000000E+00  0.00000000E+00
  0.00000000E+00  0.00000000E+00  0.00000000E+00
  0.00000000E+00  0.00000000E+00  0.00000000E+00
  0.00000000E+00  0.00000000E+00  0.00000000E+00
  0.00000000E+00  0.00000000E+00  0.00000000E+00
  0.00000000E+00  0.00000000E+00  0.00000000E+00
  0.00000000E+00  0.00000000E+00  0.00000000E+00
  0.00000000E+00  0.00000000E+00  0.00000000E+00
  0.00000000E+00  0.00000000E+00  0.00000000E+00
  0.00000000E+00  0.00000000E+00  0.00000000E+00
  0.00000000E+00  0.00000000E+00  0.00000000E+00
  0.00000000E+00  0.00000000E+00  0.00000000E+00
  0.00000000E+00  0.00000000E+00  0.00000000E+00
  0.00000000E+00  0.00000000E+00  0.00000000E+00
  0.00000000E+00  0.00000000E+00  0.00000000E+00
  0.00000000E+00  0.00000000E+00  0.00000000E+00
  0.00000000E+00  0.00000000E+00  0.00000000E+00
  0.00000000E+00  0.00000000E+00  0.00000000E+00
  0.00000000E+00  0.00000000E+00  0.00000000E+00
  0.00000000E+00  0.00000000E+00  0.00000000E+00
  0.00000000E+00  0.00000000E+00  0.00000000E+00
  0.00000000E+00  0.00000000E+00  0.00000000E+00
  0.00000000E+00  0.00000000E+00  0.00000000E+00
  0.00000000E+00  0.00000000E+00  0.00000000E+00
  0.00000000E+00  0.00000000E+00  0.00000000E+00
  0.00000000E+00  0.00000000E+00  0.00000000E+00
  0.00000000E+00  0.00000000E+00  0.00000000E+00
  0.00000000E+00  0.00000000E+00  0.00000000E+00
  0.00000000E+00  0.00000000E+00  0.00000000E+00
  0.00000000E+00  0.00000000E+00  0.00000000E+00
  0.00000000E+00  0.00000000E+00  0.00000000E+00
  0.00000000E+00  0.00000000E+00  0.00000000E+00
  0.00000000E+00  0.00000000E+00  0.00000000E+00
  0.00000000E+00  0.00000000E+00  0.00000000E+00
  0.00000000E+00  0.00000000E+00  0.00000000E+00
  0.00000000E+00  0.00000000E+00  0.00000000E+00
  0.00000000E+00  0.00000000E+00  0.00000000E+00
  0.00000000E+00  0.00000000E+00  0.00000000E+00
  0.00000000E+00  0.00000000E+00  0.00000000E+00
  0.00000000E+00  0.00000000E+00  0.00000000E+00
  0.00000000E+00  0.00000000E+00  0.00000000E+00
  0.00000000E+00  0.00000000E+00  0.00000000E+00
  0.00000000E+00  0.00000000E+00  0.00000000E+00
  0.00000000E+00  0.00000000E+00  0.00000000E+00
  0.00000000E+00  0.00000000E+00  0.00000000E+00
  0.00000000E+00  0.00000000E+00  0.00000000E+00
  0.00000000E+00  0.00000000E+00  0.00000000E+00
  0.00000000E+00  0.00000000E+00  0.00000000E+00
  0.00000000E+00  0.00000000E+00  0.00000000E+00
  0.00000000E+00  0.00000000E+00  0.00000000E+00
  0.00000000E+00  0.00000000E+00  0.00000000E+00
  0.00000000E+00  0.00000000E+00  0.00000000E+00
  0.00000000E+00  0.00000000E+00  0.00000000E+00
  0.00000000E+00  0.00000000E+00  0.00000000E+00
  0.00000000E+00  0.00000000E+00  0.00000000E+00
  0.00000000E+00  0.00000000E+00  0.00000000E+00
  0.00000000E+00  0.00000000E+00  0.00000000E+00
  0.00000000E+00  0.00000000E+00  0.00000000E+00
  0.00000000E+00  0.00000000E+00  0.00000000E+00
  0.00000000E+00  0.00000000E+00  0.00000000E+00
  0.00000000E+00  0.00000000E+00  0.00000000E+00
  0.00000000E+00  0.00000000E+00  0.00000000E+00
  0.00000000E+00  0.00000000E+00  0.00000000E+00
  0.00000000E+00  0.00000000E+00  0.00000000E+00
  0.00000000E+00  0.00000000E+00  0.00000000E+00
  0.00000000E+00  0.00000000E+00  0.00000000E+00
  0.00000000E+00  0.00000000E+00  0.00000000E+00
  0.00000000E+00  0.00000000E+00  0.00000000E+00
  0.00000000E+00  0.00000000E+00  0.00000000E+00
  0.00000000E+00  0.00000000E+00  0.00000000E+00
  0.00000000E+00  0.00000000E+00  0.00000000E+00
  0.00000000E+00  0.00000000E+00  0.00000000E+00
  0.00000000E+00  0.00000000E+00  0.00000000E+00
  0.00000000E+00  0.00000000E+00  0.00000000E+00
  0.00000000E+00  0.00000000E+00  0.00000000E+00
  0.00000000E+00  0.00000000E+00  0.00000000E+00
  0.00000000E+00  0.00000000E+00  0.00000000E+00
