#generated using str2pos                
    1.000000000000000     
    13.0204833548338019   -0.0080609598812884    0.0132781562891558
    -0.0080610212469529   13.0109957837512216    0.0015174007728727
     0.0132787497021211    0.0015171861013043   13.0200440331452363
   Ta   W 
    83    45
Direct
  0.5049354942987200  0.2501180458195576  0.2544411203366392
  0.3758099221309137  0.1255681332586102  0.1282256950500564
  0.7505486601195582  0.2511233464999844  0.2543550194366596
  0.6256674518065422  0.1238772353549099  0.1265126205244570
 -0.0030258761825025  0.2481928931641167  0.2489366371391988
  0.1248848675102322  0.3766302340053507  0.1257331910121824
  0.3751692242700644  0.3782281362419804  0.1286460030730132
  0.6251632778348013  0.3789283925443340  0.1245031365523437
 -0.0033109990114976  0.4996091791920360  0.2545690132221976
  0.8746288282625750  0.3760834729255109  0.1221169965583700
  0.1245387059928341  0.6228037001166614  0.1243625420507790
  0.6224127376198192  0.6258627017263905  0.1275452497947244
  0.0001508159633892  0.7486701030924386  0.2512596995314044
  0.8743436512325863  0.6248096999478647  0.1244765176966789
  0.2477123150638698 -0.0020233634184616  0.2446685541955891
  0.6232250155119072  0.8738155421402630  0.1293722929101264
  0.0022649364286116  0.0000382298060288  0.2457405420619821
  0.8723462588816296  0.8721232472537022  0.1279230903103798
  0.2540466668474973  0.2533603241820921  0.5023288191696279
  0.1268714909300531  0.1258567515518292  0.3771010386172108
  0.5039552104252873  0.2517304529104130  0.5008363786157343
  0.3751159372840684  0.1222481547963626  0.3750837942164620
  0.7472325900148906  0.2527455203232256  0.4997642225115382
  0.8756936030416010  0.1234032516638431  0.3761611500342755
  0.2521360289715429  0.5007592441992824  0.5049883465356404
  0.1277140472802149  0.3734155032356234  0.3737900896942492
  0.5011790633512935  0.4980096308638510  0.5022470382394493
  0.3742529623383389  0.3772646350885713  0.3700597029817483
  0.7523713641855585  0.4973473391044649  0.4990915339726371
 -0.0033860498833829  0.5017167365680524  0.5004675017658282
  0.1302219344681374  0.6253274322995621  0.3733303913519547
  0.4999778922568600  0.7488170829507362  0.5018682521769732
  0.3752125596465647  0.6261790004850671  0.3706386624219202
  0.6253373607343747  0.6266179182562313  0.3714031459440737
 -0.0008607748222736  0.7446731252190278  0.5002293423053950
  0.1290512346316700  0.8727043292157124  0.3766550159722616
  0.3757691487894879  0.8742215106267985  0.3745602560621885
  0.7468352446488957  0.0017834709773674  0.5017191017068326
  0.6241153136903034  0.8737437886391390  0.3718625562146140
 -0.0013814750530628 -0.0026144746260630  0.4991883925961469
  0.8695912249760717  0.8736615666605229  0.3736936429763741
  0.2518301353384159  0.2555526842254330  0.7513077307770697
  0.1266629253213011  0.1232878341902914  0.6241535028421942
  0.5005061978146684  0.2531373555242901  0.7466444940049590
  0.3729988780530198  0.1199737098734520  0.6229269543907358
  0.7491178719216756  0.2520917776734068  0.7452149338737155
  0.0007125133430130  0.2526404396819450  0.7505899860011738
  0.8785533240592898  0.1262738141053099  0.6236480674195098
  0.2515510754257324  0.4999966978715267  0.7491075056608523
  0.1218394357959882  0.3747190990784304  0.6244687036189196
  0.4977913604966057  0.4980567985220994  0.7470257485539769
  0.2485230101599522  0.7467462691270732  0.7494789636722433
  0.4997648011805073  0.7493646894706979  0.7458701396980989
  0.7512872489798716  0.7516301246158209  0.7497838624799769
  0.6289195730192477  0.6249649916190293  0.6244536318034977
  0.1274789940913642  0.8741280879778448  0.6239503443611877
  0.5042898237325872  0.0003827150779310  0.7471930869091902
  0.3712524429162340  0.8779801704785960  0.6213143613664421
  0.7490399469557835 -0.0008224885012434  0.7489303597941162
 -0.0014495827668830 -0.0031003830016263  0.7538576185349140
  0.8759711864105832  0.8720020957334692  0.6238861480157373
  0.2496597346553636  0.2517330677897746 -0.0024089632735010
  0.1246515961843409  0.1250727600035133  0.8739279795144473
  0.4970202484083347  0.2514678220102571 -0.0007959120532199
  0.3729301679349472  0.1220746386059698  0.8724218109153993
  0.6271201746585040  0.1284426162130972  0.8779093587756454
  0.8755157148769512  0.1299508555287809  0.8774007781155216
  0.2507336422019171  0.4996065981096638 -0.0032050477163734
  0.7500582158504571  0.5027293420439937  0.0009718637474300
  0.6278542356448236  0.3779603394685979  0.8774968037534507
  0.8752896097047383  0.3772574065842815  0.8765951014821420
  0.2486062930175068  0.7521521109789586  0.0015421825771085
  0.1195421889999972  0.6250629828054398  0.8760188685266741
  0.3774205079227083  0.6270939184862250  0.8782516686674950
  0.7510744272192085  0.7517013210808778 -0.0022458024260713
  0.6244178882799390  0.6231512998793793  0.8763545348522375
  0.8784348765043034  0.6227016614817883  0.8738462118981971
  0.2456465346683253 -0.0026103170040274  0.0033936731141556
  0.4975512593361947 -0.0005615711550911  0.0014060857222539
  0.3746646583839772  0.8748560722334403  0.8739138468863548
  0.7534125249547374 -0.0016287474377315  0.0000526472776033
  0.6217750137143203  0.8728650915033480  0.8778868374736458
  0.0004531129437189 -0.0016399942477020  0.0016823800630594
  0.2488072146112021  0.2478521559852944  0.2482453598398177
  0.1244985307868300  0.1279519672037845  0.1244911050466400
  0.8730880034011131  0.1258694813053012  0.1248287036114213
  0.2506273027254111  0.5020779957939053  0.2483363025674716
  0.5008201114696413  0.5005151250019662  0.2505640472055793
  0.7510533778493094  0.4988056187553261  0.2537339888938858
  0.2505062780050327  0.7517139968334899  0.2457594323890353
  0.4972818702450303  0.7498481573342528  0.2485739349549553
  0.3763551125856711  0.6253153622793072  0.1264880509057343
  0.7503087970680901  0.7482361886757081  0.2504525396164273
  0.1240332280063247  0.8710505300515620  0.1248441808581445
  0.4986347465616924 -0.0001625512119344  0.2505324193762434
  0.3764048847114076  0.8724088102009706  0.1267507459546456
  0.7498863578667569  0.0025715133598718  0.2506683590230708
  0.6240191799175094  0.1213337506674033  0.3740273939107960
 -0.0018528883788886  0.2526664518323213  0.4997224227868206
  0.6251317006608877  0.3783081067365016  0.3728608530706681
  0.8751532720143117  0.3746728154319980  0.3754798877718464
  0.2506800371571597  0.7461871721609195  0.5013216860006283
  0.7506349632983952  0.7476309673527227  0.5014871801025791
  0.8712911368928212  0.6257200906803648  0.3744064664756881
  0.2503769518601371 -0.0005196138018420  0.4977394409693711
  0.5039111812577494  0.0006860286096672  0.4999374484929806
  0.6242436605347402  0.1248644557602230  0.6237521684871784
  0.3754017050144735  0.3746565409933953  0.6238899327584179
  0.7515598664300461  0.5000788101814423  0.7463931129531393
  0.6276157030967451  0.3774063352578942  0.6261890372983873
  0.0005420743410435  0.5000847814517521  0.7473600473470580
  0.8769490996873733  0.3764373382199236  0.6268998586281561
  0.1231791934692728  0.6254088843515351  0.6266395600158378
  0.3749463443756300  0.6272434794579997  0.6232575780379777
 -0.0000522660234813  0.7487876172693351  0.7496789210020318
  0.8744170029521527  0.6245429789233368  0.6272582384701493
  0.2479116007487510 -0.0018248769271361  0.7518325582544675
  0.6243768238502552  0.8739166671726959  0.6210541319936074
  0.7512131999598667  0.2498640395053414  0.0024044307162430
  0.0023586352172374  0.2488950668857491  0.0017297624332583
  0.1210237988542901  0.3772505926877470  0.8762740587724936
  0.4974998870988275  0.5008833068485484 -0.0001713014423797
  0.3768109168277979  0.3773186554085095  0.8771975669612159
  0.0011547154428273  0.4993733955760788 -0.0005330316732266
  0.4969736553752438  0.7504549271387444  0.0020755420087312
  0.0004635099567554  0.7527650274777093 -0.0003027044809800
  0.1239797466780845  0.8727573825759943  0.8733983222183589
  0.8767881207361462  0.8722174893747179  0.8757909102033359
 
  0.00000000E+00  0.00000000E+00  0.00000000E+00
  0.00000000E+00  0.00000000E+00  0.00000000E+00
  0.00000000E+00  0.00000000E+00  0.00000000E+00
  0.00000000E+00  0.00000000E+00  0.00000000E+00
  0.00000000E+00  0.00000000E+00  0.00000000E+00
  0.00000000E+00  0.00000000E+00  0.00000000E+00
  0.00000000E+00  0.00000000E+00  0.00000000E+00
  0.00000000E+00  0.00000000E+00  0.00000000E+00
  0.00000000E+00  0.00000000E+00  0.00000000E+00
  0.00000000E+00  0.00000000E+00  0.00000000E+00
  0.00000000E+00  0.00000000E+00  0.00000000E+00
  0.00000000E+00  0.00000000E+00  0.00000000E+00
  0.00000000E+00  0.00000000E+00  0.00000000E+00
  0.00000000E+00  0.00000000E+00  0.00000000E+00
  0.00000000E+00  0.00000000E+00  0.00000000E+00
  0.00000000E+00  0.00000000E+00  0.00000000E+00
  0.00000000E+00  0.00000000E+00  0.00000000E+00
  0.00000000E+00  0.00000000E+00  0.00000000E+00
  0.00000000E+00  0.00000000E+00  0.00000000E+00
  0.00000000E+00  0.00000000E+00  0.00000000E+00
  0.00000000E+00  0.00000000E+00  0.00000000E+00
  0.00000000E+00  0.00000000E+00  0.00000000E+00
  0.00000000E+00  0.00000000E+00  0.00000000E+00
  0.00000000E+00  0.00000000E+00  0.00000000E+00
  0.00000000E+00  0.00000000E+00  0.00000000E+00
  0.00000000E+00  0.00000000E+00  0.00000000E+00
  0.00000000E+00  0.00000000E+00  0.00000000E+00
  0.00000000E+00  0.00000000E+00  0.00000000E+00
  0.00000000E+00  0.00000000E+00  0.00000000E+00
  0.00000000E+00  0.00000000E+00  0.00000000E+00
  0.00000000E+00  0.00000000E+00  0.00000000E+00
  0.00000000E+00  0.00000000E+00  0.00000000E+00
  0.00000000E+00  0.00000000E+00  0.00000000E+00
  0.00000000E+00  0.00000000E+00  0.00000000E+00
  0.00000000E+00  0.00000000E+00  0.00000000E+00
  0.00000000E+00  0.00000000E+00  0.00000000E+00
  0.00000000E+00  0.00000000E+00  0.00000000E+00
  0.00000000E+00  0.00000000E+00  0.00000000E+00
  0.00000000E+00  0.00000000E+00  0.00000000E+00
  0.00000000E+00  0.00000000E+00  0.00000000E+00
  0.00000000E+00  0.00000000E+00  0.00000000E+00
  0.00000000E+00  0.00000000E+00  0.00000000E+00
  0.00000000E+00  0.00000000E+00  0.00000000E+00
  0.00000000E+00  0.00000000E+00  0.00000000E+00
  0.00000000E+00  0.00000000E+00  0.00000000E+00
  0.00000000E+00  0.00000000E+00  0.00000000E+00
  0.00000000E+00  0.00000000E+00  0.00000000E+00
  0.00000000E+00  0.00000000E+00  0.00000000E+00
  0.00000000E+00  0.00000000E+00  0.00000000E+00
  0.00000000E+00  0.00000000E+00  0.00000000E+00
  0.00000000E+00  0.00000000E+00  0.00000000E+00
  0.00000000E+00  0.00000000E+00  0.00000000E+00
  0.00000000E+00  0.00000000E+00  0.00000000E+00
  0.00000000E+00  0.00000000E+00  0.00000000E+00
  0.00000000E+00  0.00000000E+00  0.00000000E+00
  0.00000000E+00  0.00000000E+00  0.00000000E+00
  0.00000000E+00  0.00000000E+00  0.00000000E+00
  0.00000000E+00  0.00000000E+00  0.00000000E+00
  0.00000000E+00  0.00000000E+00  0.00000000E+00
  0.00000000E+00  0.00000000E+00  0.00000000E+00
  0.00000000E+00  0.00000000E+00  0.00000000E+00
  0.00000000E+00  0.00000000E+00  0.00000000E+00
  0.00000000E+00  0.00000000E+00  0.00000000E+00
  0.00000000E+00  0.00000000E+00  0.00000000E+00
  0.00000000E+00  0.00000000E+00  0.00000000E+00
  0.00000000E+00  0.00000000E+00  0.00000000E+00
  0.00000000E+00  0.00000000E+00  0.00000000E+00
  0.00000000E+00  0.00000000E+00  0.00000000E+00
  0.00000000E+00  0.00000000E+00  0.00000000E+00
  0.00000000E+00  0.00000000E+00  0.00000000E+00
  0.00000000E+00  0.00000000E+00  0.00000000E+00
  0.00000000E+00  0.00000000E+00  0.00000000E+00
  0.00000000E+00  0.00000000E+00  0.00000000E+00
  0.00000000E+00  0.00000000E+00  0.00000000E+00
  0.00000000E+00  0.00000000E+00  0.00000000E+00
  0.00000000E+00  0.00000000E+00  0.00000000E+00
  0.00000000E+00  0.00000000E+00  0.00000000E+00
  0.00000000E+00  0.00000000E+00  0.00000000E+00
  0.00000000E+00  0.00000000E+00  0.00000000E+00
  0.00000000E+00  0.00000000E+00  0.00000000E+00
  0.00000000E+00  0.00000000E+00  0.00000000E+00
  0.00000000E+00  0.00000000E+00  0.00000000E+00
  0.00000000E+00  0.00000000E+00  0.00000000E+00
  0.00000000E+00  0.00000000E+00  0.00000000E+00
  0.00000000E+00  0.00000000E+00  0.00000000E+00
  0.00000000E+00  0.00000000E+00  0.00000000E+00
  0.00000000E+00  0.00000000E+00  0.00000000E+00
  0.00000000E+00  0.00000000E+00  0.00000000E+00
  0.00000000E+00  0.00000000E+00  0.00000000E+00
  0.00000000E+00  0.00000000E+00  0.00000000E+00
  0.00000000E+00  0.00000000E+00  0.00000000E+00
  0.00000000E+00  0.00000000E+00  0.00000000E+00
  0.00000000E+00  0.00000000E+00  0.00000000E+00
  0.00000000E+00  0.00000000E+00  0.00000000E+00
  0.00000000E+00  0.00000000E+00  0.00000000E+00
  0.00000000E+00  0.00000000E+00  0.00000000E+00
  0.00000000E+00  0.00000000E+00  0.00000000E+00
  0.00000000E+00  0.00000000E+00  0.00000000E+00
  0.00000000E+00  0.00000000E+00  0.00000000E+00
  0.00000000E+00  0.00000000E+00  0.00000000E+00
  0.00000000E+00  0.00000000E+00  0.00000000E+00
  0.00000000E+00  0.00000000E+00  0.00000000E+00
  0.00000000E+00  0.00000000E+00  0.00000000E+00
  0.00000000E+00  0.00000000E+00  0.00000000E+00
  0.00000000E+00  0.00000000E+00  0.00000000E+00
  0.00000000E+00  0.00000000E+00  0.00000000E+00
  0.00000000E+00  0.00000000E+00  0.00000000E+00
  0.00000000E+00  0.00000000E+00  0.00000000E+00
  0.00000000E+00  0.00000000E+00  0.00000000E+00
  0.00000000E+00  0.00000000E+00  0.00000000E+00
  0.00000000E+00  0.00000000E+00  0.00000000E+00
  0.00000000E+00  0.00000000E+00  0.00000000E+00
  0.00000000E+00  0.00000000E+00  0.00000000E+00
  0.00000000E+00  0.00000000E+00  0.00000000E+00
  0.00000000E+00  0.00000000E+00  0.00000000E+00
  0.00000000E+00  0.00000000E+00  0.00000000E+00
  0.00000000E+00  0.00000000E+00  0.00000000E+00
  0.00000000E+00  0.00000000E+00  0.00000000E+00
  0.00000000E+00  0.00000000E+00  0.00000000E+00
  0.00000000E+00  0.00000000E+00  0.00000000E+00
  0.00000000E+00  0.00000000E+00  0.00000000E+00
  0.00000000E+00  0.00000000E+00  0.00000000E+00
  0.00000000E+00  0.00000000E+00  0.00000000E+00
  0.00000000E+00  0.00000000E+00  0.00000000E+00
  0.00000000E+00  0.00000000E+00  0.00000000E+00
  0.00000000E+00  0.00000000E+00  0.00000000E+00
  0.00000000E+00  0.00000000E+00  0.00000000E+00
  0.00000000E+00  0.00000000E+00  0.00000000E+00
