#BCC aalvarado POSCAR generator         
    12.76000000000000     
     1.0278876820787126   -0.0007137655731946   -0.0001145461073569
    -0.0007144144294823    1.0273846757184730    0.0000032122016237
    -0.0001145981226930    0.0000031210694944    1.0267611806511749
   Ta   W 
   102    26
Direct
  0.4964217076646011  0.5017562514532510  0.5006889986896051
  0.6256903284213183  0.6251419814623046  0.6235627359055684
  0.6251139017298214  0.6238736712240619  0.3732211430032281
  0.6241078782332468  0.3751197047475834  0.3724688350220242
  0.3750027509290544  0.3710680866472882  0.3746614801803456
  0.6246286573621674  0.3752852002243605  0.6239329123820238
  0.3704792577312069  0.3738188927118219  0.6241812353056273
  0.3720554543299345  0.6261422745235398  0.3710629617890306
  0.7522726917492707  0.7483418401509743  0.7522675469501195
  0.7522393781026223  0.7488604231116923  0.4977638839719956
  0.7507228642055863  0.5014682193580803  0.4990935000315158
  0.7522340517806130  0.5017557508407836  0.7519983584949101
  0.4974265614157427  0.5014129930302322  0.7485769137768278
  0.4955257009907767  0.7509486716973824  0.4989630732187443
  0.4963907844157536  0.7491729047989996  0.7488263063898483
  0.7523841190576781  0.7503378696520320  0.2509129203197748
  0.4964475386413780  0.5010477810049633  0.2491933425312209
  0.4971498076093271  0.7532812042929266  0.2492298318371038
  0.7540729511789162  0.2472911129762941  0.2517389017447247
  0.7526794728875814  0.2494076400742084  0.4972981280333145
  0.4974258816991950  0.2480344033582494  0.5023866111795792
  0.2444792654781480  0.2536871226089011  0.2499637206081030
  0.2466442072637757  0.4950732404016401  0.2509071857076416
  0.2502073424865764  0.5004910477886115  0.4971291901114033
  0.7512122232856517  0.2510780488179988  0.7499889889792486
  0.4956429739727525  0.2473255585186785  0.7489916045429684
  0.2491777933358466  0.2463407953380468  0.7469025388191274
  0.2522202273840463  0.7492571672001469  0.5000478564445431
  0.2508580526771613  0.7486075795443694  0.7472781529198057
  0.8772813446740277  0.8794244825652792  0.8780773212240330
  0.8769303664554885  0.8747324539800837  0.6250763806976638
  0.8779386437874259  0.6239762087467745  0.6225344465396273
  0.6221785741782564  0.6256868140972341  0.8750334841920925
  0.6246797385335784  0.8747692018641416  0.6242637478740187
  0.6257318315097755  0.8763553630296202  0.8764665760502092
  0.8766332905701114  0.8747934354023059  0.3751353306282110
  0.6252793876510233  0.8750119225564237  0.3752447112931226
  0.8768136035827101  0.3800498043058641  0.3739515327649826
  0.8786081259986191  0.3771144934980228  0.6218420841133846
  0.8769847242012486  0.3728663178920893  0.8752384190936974
  0.6234598933809372  0.3745226623424673  0.8743571086620736
  0.3695686484447826  0.3751967785685640  0.8761778429107997
  0.3702070792526580  0.6240422438622222  0.8778150034255127
  0.3715046190618558  0.8784495787215956  0.6255509074567950
  0.3701035430751617  0.8757643578457535  0.8760318015722868
  0.8764695832254915  0.8779398644786163  0.1223454882868723
  0.8758518611982439  0.6219084331441483  0.1294173422245966
  0.6263413502917742  0.6236121489583758  0.1275659369282821
  0.6280627589077503  0.8766356938712613  0.1238656818748088
  0.8747730106645620  0.3785125954021340  0.1298682966881487
  0.6246657426951707  0.3745363056001151  0.1288887966352296
  0.3735003207659414  0.3722655907600895  0.1233001674739694
  0.3694144137161247  0.6257172523471521  0.1235006296762762
  0.8770798864455366  0.1229690129782650  0.1215175487514922
  0.6239167210714254  0.1246900288747455  0.1257422589985220
  0.6201189294370029  0.1271992293188850  0.3731217056134821
  0.3712984954996552  0.1250079037279758  0.1255109038817414
  0.3719721831850130  0.1255087915229063  0.3737293363666178
  0.8752897097129493  0.1263360604918010  0.6264514644296090
  0.6255380272729627  0.1256160733599060  0.6246138336490248
  0.1275784632335596  0.1215141827666019  0.1229221128640069
  0.1312318703776313  0.1232503712685321  0.3755611622426929
  0.1266366271691942  0.3768864341988130  0.6238227403180170
  0.1266838143962501  0.6260628113097704  0.1255627828113949
  0.1239945531076893  0.6251052231200194  0.3730905101838673
  0.1234222577017081  0.6217097091288309  0.6241328057866035
  0.8772772161488240  0.1226477454187321  0.8780555331107570
  0.6258763208150712  0.1227568515428459  0.8770844295855882
  0.3698374120507978  0.1224170270415086  0.8774119973084129
  0.1275588410187580  0.1223186141256941  0.8784602595463117
  0.1291668171082215  0.3753117655821284  0.8756183320012085
  0.1301558614147515  0.6234921073234422  0.8767906786212692
  0.1274478367454910  0.8756832028122649  0.1242408326765543
  0.1287424340953870  0.8762407576421174  0.3731883647462700
  0.1281495952011290  0.8771082872597796  0.6247155817765432
  0.1278983616800483  0.8770826523400120  0.8779228680899220
  0.0031124633732006  0.0020155810362317  0.7473818730299133
  0.0007760586961399  0.7489234973299652  0.7527909256727462
 -0.0013360963712273  0.7466101269687732 -0.0010877058502225
  0.7523038660412553  0.7464828665505496 -0.0009285423050740
  0.7502865878729131 -0.0003531151203257  0.7487462729097359
  0.0018291082773771  0.0040482424478975  0.4997459616149638
  0.0011771389926753  0.7502021288369806  0.4982477477167421
  0.7519505864127565  0.0024187744801335  0.4977684213915150
 -0.0011317882016372  0.5008556005139576  0.7534127730617982
 -0.0003020073206565  0.5000086003610545  0.0003325956865875
  0.7514018823776121  0.5012873279772383 -0.0021889103490794
  0.4997808251585271  0.4999896727660281  0.0005336245114135
  0.4990114427215102  0.7519087785251031  0.0018139755769677
  0.4966105876588717  0.0000062388714575  0.4996221256643134
  0.4978680557297449  0.0011819438332798  0.7493077037434266
  0.4974863730713189 -0.0022787892959252  0.0021618090091451
 -0.0004170340474045  0.0025160810822789  0.2528895729415478
 -0.0007754950436825  0.7500219986043399  0.2505459483722125
  0.7524037379521883  0.0027031354399763  0.2531660727517870
  0.4965976203001551 -0.0040293090585294  0.2497461160721551
  0.0028855224798851  0.2505670290124147  0.2514491088142893
  0.0026634208829898  0.2485581130019631  0.4977475641700572
  0.0042030949786081  0.2484929010429483  0.7485694311292440
  0.0021399272581504  0.2535658879594176  0.0032943309415793
  0.7504547275043121  0.2520184543137486  0.0014629658762542
  0.4996473574012964  0.2486589845829093 -0.0013354876426141
  0.2482118678058583  0.2500876589798309  0.0014882959617603
  0.2518693125976365 -0.0014684404128716  0.2502803805497693
  0.2512981388908682  0.0007705782990017  0.5002448889342271
  0.2498189126183680  0.0022092838312187  0.7477402820969834
  0.2517128131068923 -0.0019292762546100  0.0020379345037695
  0.3722615836796451  0.6237120969955621  0.6254935249962706
  0.7510503394188591  0.5009796028827578  0.2511153552616429
  0.4976972669235831  0.2488978845080653  0.2497492661453548
  0.2482518607454149  0.2490181954050611  0.5003910683557041
  0.2499913799807252  0.5000899579213753  0.7478159712621636
  0.2510660109398972  0.7517005381286850  0.2502457728838549
  0.8765647971276227  0.6252695932087572  0.8756158570073505
  0.8775236081987203  0.6218837238428386  0.3739308647864994
  0.3712854356720002  0.8765655372091494  0.3735302950172276
  0.3698744350094951  0.8747466952031229  0.1247207714950047
  0.8774190491488248  0.1268756715806678  0.3747151361082114
  0.3714855014543479  0.1236429995517212  0.6235723904224779
  0.1252010310280069  0.3758958789623481  0.1241502345815776
  0.1235429371032540  0.3759347818889454  0.3765115553683234
  0.1285024768494824  0.1247497036659116  0.6236842889390884
  0.0022684075016376  0.0000166992276110  0.0007534771137349
  0.7494143543835236 -0.0001798510829881  0.0009710638412113
  0.0018167018289366  0.4996343589477987  0.4973658654833825
  0.0027740763160701  0.4990641445030528  0.2505825766655697
  0.2474837166231091  0.4983813388901607  0.0029339213135330
  0.2502175041588201  0.7508436074976222  0.0011067458573255
 
  0.00000000E+00  0.00000000E+00  0.00000000E+00
  0.00000000E+00  0.00000000E+00  0.00000000E+00
  0.00000000E+00  0.00000000E+00  0.00000000E+00
  0.00000000E+00  0.00000000E+00  0.00000000E+00
  0.00000000E+00  0.00000000E+00  0.00000000E+00
  0.00000000E+00  0.00000000E+00  0.00000000E+00
  0.00000000E+00  0.00000000E+00  0.00000000E+00
  0.00000000E+00  0.00000000E+00  0.00000000E+00
  0.00000000E+00  0.00000000E+00  0.00000000E+00
  0.00000000E+00  0.00000000E+00  0.00000000E+00
  0.00000000E+00  0.00000000E+00  0.00000000E+00
  0.00000000E+00  0.00000000E+00  0.00000000E+00
  0.00000000E+00  0.00000000E+00  0.00000000E+00
  0.00000000E+00  0.00000000E+00  0.00000000E+00
  0.00000000E+00  0.00000000E+00  0.00000000E+00
  0.00000000E+00  0.00000000E+00  0.00000000E+00
  0.00000000E+00  0.00000000E+00  0.00000000E+00
  0.00000000E+00  0.00000000E+00  0.00000000E+00
  0.00000000E+00  0.00000000E+00  0.00000000E+00
  0.00000000E+00  0.00000000E+00  0.00000000E+00
  0.00000000E+00  0.00000000E+00  0.00000000E+00
  0.00000000E+00  0.00000000E+00  0.00000000E+00
  0.00000000E+00  0.00000000E+00  0.00000000E+00
  0.00000000E+00  0.00000000E+00  0.00000000E+00
  0.00000000E+00  0.00000000E+00  0.00000000E+00
  0.00000000E+00  0.00000000E+00  0.00000000E+00
  0.00000000E+00  0.00000000E+00  0.00000000E+00
  0.00000000E+00  0.00000000E+00  0.00000000E+00
  0.00000000E+00  0.00000000E+00  0.00000000E+00
  0.00000000E+00  0.00000000E+00  0.00000000E+00
  0.00000000E+00  0.00000000E+00  0.00000000E+00
  0.00000000E+00  0.00000000E+00  0.00000000E+00
  0.00000000E+00  0.00000000E+00  0.00000000E+00
  0.00000000E+00  0.00000000E+00  0.00000000E+00
  0.00000000E+00  0.00000000E+00  0.00000000E+00
  0.00000000E+00  0.00000000E+00  0.00000000E+00
  0.00000000E+00  0.00000000E+00  0.00000000E+00
  0.00000000E+00  0.00000000E+00  0.00000000E+00
  0.00000000E+00  0.00000000E+00  0.00000000E+00
  0.00000000E+00  0.00000000E+00  0.00000000E+00
  0.00000000E+00  0.00000000E+00  0.00000000E+00
  0.00000000E+00  0.00000000E+00  0.00000000E+00
  0.00000000E+00  0.00000000E+00  0.00000000E+00
  0.00000000E+00  0.00000000E+00  0.00000000E+00
  0.00000000E+00  0.00000000E+00  0.00000000E+00
  0.00000000E+00  0.00000000E+00  0.00000000E+00
  0.00000000E+00  0.00000000E+00  0.00000000E+00
  0.00000000E+00  0.00000000E+00  0.00000000E+00
  0.00000000E+00  0.00000000E+00  0.00000000E+00
  0.00000000E+00  0.00000000E+00  0.00000000E+00
  0.00000000E+00  0.00000000E+00  0.00000000E+00
  0.00000000E+00  0.00000000E+00  0.00000000E+00
  0.00000000E+00  0.00000000E+00  0.00000000E+00
  0.00000000E+00  0.00000000E+00  0.00000000E+00
  0.00000000E+00  0.00000000E+00  0.00000000E+00
  0.00000000E+00  0.00000000E+00  0.00000000E+00
  0.00000000E+00  0.00000000E+00  0.00000000E+00
  0.00000000E+00  0.00000000E+00  0.00000000E+00
  0.00000000E+00  0.00000000E+00  0.00000000E+00
  0.00000000E+00  0.00000000E+00  0.00000000E+00
  0.00000000E+00  0.00000000E+00  0.00000000E+00
  0.00000000E+00  0.00000000E+00  0.00000000E+00
  0.00000000E+00  0.00000000E+00  0.00000000E+00
  0.00000000E+00  0.00000000E+00  0.00000000E+00
  0.00000000E+00  0.00000000E+00  0.00000000E+00
  0.00000000E+00  0.00000000E+00  0.00000000E+00
  0.00000000E+00  0.00000000E+00  0.00000000E+00
  0.00000000E+00  0.00000000E+00  0.00000000E+00
  0.00000000E+00  0.00000000E+00  0.00000000E+00
  0.00000000E+00  0.00000000E+00  0.00000000E+00
  0.00000000E+00  0.00000000E+00  0.00000000E+00
  0.00000000E+00  0.00000000E+00  0.00000000E+00
  0.00000000E+00  0.00000000E+00  0.00000000E+00
  0.00000000E+00  0.00000000E+00  0.00000000E+00
  0.00000000E+00  0.00000000E+00  0.00000000E+00
  0.00000000E+00  0.00000000E+00  0.00000000E+00
  0.00000000E+00  0.00000000E+00  0.00000000E+00
  0.00000000E+00  0.00000000E+00  0.00000000E+00
  0.00000000E+00  0.00000000E+00  0.00000000E+00
  0.00000000E+00  0.00000000E+00  0.00000000E+00
  0.00000000E+00  0.00000000E+00  0.00000000E+00
  0.00000000E+00  0.00000000E+00  0.00000000E+00
  0.00000000E+00  0.00000000E+00  0.00000000E+00
  0.00000000E+00  0.00000000E+00  0.00000000E+00
  0.00000000E+00  0.00000000E+00  0.00000000E+00
  0.00000000E+00  0.00000000E+00  0.00000000E+00
  0.00000000E+00  0.00000000E+00  0.00000000E+00
  0.00000000E+00  0.00000000E+00  0.00000000E+00
  0.00000000E+00  0.00000000E+00  0.00000000E+00
  0.00000000E+00  0.00000000E+00  0.00000000E+00
  0.00000000E+00  0.00000000E+00  0.00000000E+00
  0.00000000E+00  0.00000000E+00  0.00000000E+00
  0.00000000E+00  0.00000000E+00  0.00000000E+00
  0.00000000E+00  0.00000000E+00  0.00000000E+00
  0.00000000E+00  0.00000000E+00  0.00000000E+00
  0.00000000E+00  0.00000000E+00  0.00000000E+00
  0.00000000E+00  0.00000000E+00  0.00000000E+00
  0.00000000E+00  0.00000000E+00  0.00000000E+00
  0.00000000E+00  0.00000000E+00  0.00000000E+00
  0.00000000E+00  0.00000000E+00  0.00000000E+00
  0.00000000E+00  0.00000000E+00  0.00000000E+00
  0.00000000E+00  0.00000000E+00  0.00000000E+00
  0.00000000E+00  0.00000000E+00  0.00000000E+00
  0.00000000E+00  0.00000000E+00  0.00000000E+00
  0.00000000E+00  0.00000000E+00  0.00000000E+00
  0.00000000E+00  0.00000000E+00  0.00000000E+00
  0.00000000E+00  0.00000000E+00  0.00000000E+00
  0.00000000E+00  0.00000000E+00  0.00000000E+00
  0.00000000E+00  0.00000000E+00  0.00000000E+00
  0.00000000E+00  0.00000000E+00  0.00000000E+00
  0.00000000E+00  0.00000000E+00  0.00000000E+00
  0.00000000E+00  0.00000000E+00  0.00000000E+00
  0.00000000E+00  0.00000000E+00  0.00000000E+00
  0.00000000E+00  0.00000000E+00  0.00000000E+00
  0.00000000E+00  0.00000000E+00  0.00000000E+00
  0.00000000E+00  0.00000000E+00  0.00000000E+00
  0.00000000E+00  0.00000000E+00  0.00000000E+00
  0.00000000E+00  0.00000000E+00  0.00000000E+00
  0.00000000E+00  0.00000000E+00  0.00000000E+00
  0.00000000E+00  0.00000000E+00  0.00000000E+00
  0.00000000E+00  0.00000000E+00  0.00000000E+00
  0.00000000E+00  0.00000000E+00  0.00000000E+00
  0.00000000E+00  0.00000000E+00  0.00000000E+00
  0.00000000E+00  0.00000000E+00  0.00000000E+00
  0.00000000E+00  0.00000000E+00  0.00000000E+00
  0.00000000E+00  0.00000000E+00  0.00000000E+00
  0.00000000E+00  0.00000000E+00  0.00000000E+00
  0.00000000E+00  0.00000000E+00  0.00000000E+00
