#BCC aalvarado POSCAR generator         
    12.76000000000000     
     1.0011325674798679   -0.0000482126843095   -0.0000651847831890
    -0.0000482284501971    1.0009164712144616    0.0001133753349869
    -0.0000651743111078    0.0001133542364659    1.0010688214562933
   Ta   W 
    25   103
Direct
  0.6255543556120599  0.3746601032411799  0.6246929081046700
  0.3747891724641614  0.6226253976916021  0.6229576635715309
  0.5019815872651913  0.7500912484301232  0.5001430127973409
  0.5008917790433725  0.7511585273089978  0.7505525459572624
  0.4995141049321517  0.2511081060464081  0.2509836950501018
  0.2485165550110508  0.4985786381379189  0.7500595106587550
  0.2498316053084369  0.7496074904875266  0.7501063838139536
  0.8756187019907762  0.6258585137175130  0.8741067222901530
  0.8753356226812664  0.8754634303349318  0.3750202419619775
  0.8741040178064954  0.6256778988221532  0.3762377038047099
  0.6242144483824515  0.3742446956700974  0.8738384859008123
  0.3739156588016765  0.8763171458215523  0.3741654030475019
  0.6255802742579802  0.8751446465428018  0.1251215922063658
  0.3751479655005899  0.6250663716405135  0.1253684794132484
  0.6262468123869861  0.1237731237917510  0.1247714377002995
  0.6242703770544060  0.1260619431273290  0.6239384308520018
  0.1257589874377198  0.3758266363518248  0.1263195441467418
  0.1249040753148528  0.8755368446571462  0.3750611402678520
  0.1231010518592891  0.8750696572571959  0.8750833061374407
  0.7510678374099796 -0.0006826102100267  0.7505602721221089
  0.7496167443151973  0.5001583574059375  0.0017493547796786
 -0.0000181237012934  0.4997837117240085  0.2509988917200287
 -0.0003608120847778  0.2488701449229053 -0.0012187323479802
  0.2501995052195015  0.2488633619684333 -0.0009985766856578
  0.2505761777918116  0.0009825852365656  0.0005068106618914
  0.4999607412893448  0.4996853635102898  0.4980233733638541
  0.6270795683574258  0.6234012806834155  0.6245258681007145
  0.6260797180654382  0.6238597030572622  0.3742398225378674
  0.6252830555330570  0.3757858302934545  0.3758654854676209
  0.3743837761070027  0.3750822951589681  0.3757993072838224
  0.3749800629084007  0.3732141466159112  0.6238177231770081
  0.3748098372264173  0.6240827329546759  0.3735266159193236
  0.7497490123572941  0.7510944346031614  0.7494621380582858
  0.7491261942741276  0.7497923777554079  0.5012665427297948
  0.7501991470306512  0.4996780595852494  0.4998504475216431
  0.7512970048511596  0.5005996844996726  0.7493802221963595
  0.4988967486443988  0.5002095713004880  0.7504871060404550
  0.7494493547730868  0.7495172516403569  0.2495108029630566
  0.7491537951823638  0.4991015349498749  0.2499619322206608
  0.5004483201414883  0.4988970162008878  0.2505075108823152
  0.5006710772112268  0.7490419219843327  0.2504910358865839
  0.7503471918760926  0.2505276025785894  0.2511261568731061
  0.7519491572523145  0.2503215796176587  0.4984134834426254
  0.4982317904689132  0.2500976587071226  0.4985072311335864
  0.2507415212445381  0.2496610599920712  0.2514602158567339
  0.2491611268148206  0.2499277862676775  0.5001403942307927
  0.2500394506440562  0.5000094422831219  0.2517610869219516
  0.2490759971084845  0.4979663279498010  0.4995206787284658
  0.7524154130107097  0.2488307699010081  0.7500042153651408
  0.4977003678351442  0.2489083154526149  0.7502188480389116
  0.2494056672424629  0.2500589647517356  0.7490596589968439
  0.2493046683261645  0.7494501539781974  0.2491705389261059
  0.2493016201805677  0.7492832219877918  0.5003251601907455
  0.8754592527371069  0.8743516290300962  0.8756638088706723
  0.8758099976281210  0.8746390686372757  0.6243515299444279
  0.8753551119693701  0.6248143679730070  0.6251298154931451
  0.6257831962066263  0.6248165073012787  0.8754146399488583
  0.6264783993177554  0.8760734083813653  0.6246292288066696
  0.6254106426690790  0.8750059220584309  0.8767650082928695
  0.6257343527208250  0.8753619319484955  0.3739555579641184
  0.8743073401821216  0.3741209950642190  0.3762313713381785
  0.8755022000767868  0.3748367060066525  0.6244179036153678
  0.8746153297545933  0.3749296145085850  0.8730886723492798
  0.3764959007601075  0.3742082896861311  0.8746374521814436
  0.3756870029907775  0.6239606783056911  0.8776818948213460
  0.3740814059834076  0.8775354820708271  0.6239451355088085
  0.3755726618341827  0.8762909139824001  0.8758390829705485
  0.8746947317751826  0.8755498794885171  0.1252461516250923
  0.8750430240776191  0.6267672846499407  0.1250541304375036
  0.6240219203183613  0.6262016324804326  0.1262323607701452
  0.8746249099492767  0.3739661056255238  0.1261377822829790
  0.6250936650322284  0.3749402567312523  0.1252314653320999
  0.3750271397498475  0.3768471826885539  0.1255730096235385
  0.3759016457959948  0.8738649536785340  0.1259760570162459
  0.8742785638645207  0.1240176748647226  0.1258864159638039
  0.8753448192034160  0.1252957046753253  0.3750062811635104
  0.6257454104747660  0.1249728895740794  0.3754505835669337
  0.3760244526841492  0.1244439528407141  0.1257977355205316
  0.3739794682709829  0.1250432429497381  0.3761981863449848
  0.8761887043722844  0.1257353487200746  0.6240440871256711
  0.3740870945014034  0.1253571696437764  0.6247688119369942
  0.1239224068842288  0.1242346782368397  0.1275826099060045
  0.1247749684206051  0.1252953225183991  0.3759993213191324
  0.1256690164716250  0.3740182067679221  0.3762550080950093
  0.1248562092364359  0.1254736743162042  0.6240883402781231
  0.1237927104947912  0.3736632893612654  0.6237866118501146
  0.1261685002915646  0.6258703720128347  0.1249283626195694
  0.1252968732161485  0.6254667858689906  0.3756198642581274
  0.1231171638168910  0.6244286137344991  0.6235685263010373
  0.8750108399064904  0.1246380667003660  0.8746881523851511
  0.6244193262750514  0.1254407613085265  0.8753825883431179
  0.3760739885364877  0.1251267320315219  0.8729917477228940
  0.1242763837950718  0.1240272869232197  0.8719280323055061
  0.1244426275663849  0.3754775242032460  0.8735295172516037
  0.1230307345448573  0.6253325543234655  0.8762920406847338
  0.1239560773996959  0.8741798204837580  0.1257414263022223
  0.1236141654890198  0.8762024255099484  0.6243098025852453
 -0.0004716788619890  0.0005004745276762  0.0003673025802110
 -0.0008129680619614  0.0010063278159040  0.7490406713585270
 -0.0001934307216512  0.7500381211406620  0.7491122946087457
 -0.0002936942140463  0.7504584348136225  0.0008042602284184
  0.7502369018140173  0.7499243095159757  0.0000849278357266
  0.7512692000528860 -0.0002691163772738 -0.0014497128636014
  0.0003154264309554  0.0021226162540797  0.5012387983475076
  0.0001190682204993  0.7495091739563275  0.5022362870365206
  0.7504235069025011  0.0004132038067865  0.5003788505463045
  0.0005591656880255  0.4986485887435064  0.5008928780255378
  0.0007998844116324  0.4989904436368378  0.7487996565848192
 -0.0003145270163537  0.4999471601851131  0.0000060722810214
  0.5004265406157132  0.5001728663370991  0.0006071156440122
  0.5003094115536302  0.7500778234620903 -0.0011947869748124
  0.4995769217225691  0.0004313548833378  0.5003174035774577
  0.4997445259653887 -0.0002711191098073  0.7505147969469488
  0.4987795564597776 -0.0001957891224007 -0.0014705612148955
 -0.0000165804561248  0.0015386622352683  0.2490743285543146
  0.0005589799215964  0.7495378910201982  0.2480272776128100
  0.7511667375752116  0.0009258659763233  0.2506363876158496
  0.4993915429570528  0.0013095632481838  0.2505889727398550
 -0.0007671042697879  0.2494048907873597  0.2510893389311576
  0.0004700287321234  0.2500080410511483  0.5004600566645404
  0.0004689271732058  0.2499135783816689  0.7492618388308718
  0.7517278896706449  0.2500372835567587  0.0004346293879652
  0.4986306364440186  0.2499228370578218  0.0001543997248411
  0.2505613240017783  0.4996710247176930 -0.0010534653176355
  0.2497214756527276  0.7503980176595878  0.0002807587484189
  0.2494856915137266  0.0014985028974153  0.2489736378481167
  0.2495467946873071  0.0024687013505192  0.5010320366805419
  0.2502096401701969  0.0011032993366800  0.7491576034193784
 
  0.00000000E+00  0.00000000E+00  0.00000000E+00
  0.00000000E+00  0.00000000E+00  0.00000000E+00
  0.00000000E+00  0.00000000E+00  0.00000000E+00
  0.00000000E+00  0.00000000E+00  0.00000000E+00
  0.00000000E+00  0.00000000E+00  0.00000000E+00
  0.00000000E+00  0.00000000E+00  0.00000000E+00
  0.00000000E+00  0.00000000E+00  0.00000000E+00
  0.00000000E+00  0.00000000E+00  0.00000000E+00
  0.00000000E+00  0.00000000E+00  0.00000000E+00
  0.00000000E+00  0.00000000E+00  0.00000000E+00
  0.00000000E+00  0.00000000E+00  0.00000000E+00
  0.00000000E+00  0.00000000E+00  0.00000000E+00
  0.00000000E+00  0.00000000E+00  0.00000000E+00
  0.00000000E+00  0.00000000E+00  0.00000000E+00
  0.00000000E+00  0.00000000E+00  0.00000000E+00
  0.00000000E+00  0.00000000E+00  0.00000000E+00
  0.00000000E+00  0.00000000E+00  0.00000000E+00
  0.00000000E+00  0.00000000E+00  0.00000000E+00
  0.00000000E+00  0.00000000E+00  0.00000000E+00
  0.00000000E+00  0.00000000E+00  0.00000000E+00
  0.00000000E+00  0.00000000E+00  0.00000000E+00
  0.00000000E+00  0.00000000E+00  0.00000000E+00
  0.00000000E+00  0.00000000E+00  0.00000000E+00
  0.00000000E+00  0.00000000E+00  0.00000000E+00
  0.00000000E+00  0.00000000E+00  0.00000000E+00
  0.00000000E+00  0.00000000E+00  0.00000000E+00
  0.00000000E+00  0.00000000E+00  0.00000000E+00
  0.00000000E+00  0.00000000E+00  0.00000000E+00
  0.00000000E+00  0.00000000E+00  0.00000000E+00
  0.00000000E+00  0.00000000E+00  0.00000000E+00
  0.00000000E+00  0.00000000E+00  0.00000000E+00
  0.00000000E+00  0.00000000E+00  0.00000000E+00
  0.00000000E+00  0.00000000E+00  0.00000000E+00
  0.00000000E+00  0.00000000E+00  0.00000000E+00
  0.00000000E+00  0.00000000E+00  0.00000000E+00
  0.00000000E+00  0.00000000E+00  0.00000000E+00
  0.00000000E+00  0.00000000E+00  0.00000000E+00
  0.00000000E+00  0.00000000E+00  0.00000000E+00
  0.00000000E+00  0.00000000E+00  0.00000000E+00
  0.00000000E+00  0.00000000E+00  0.00000000E+00
  0.00000000E+00  0.00000000E+00  0.00000000E+00
  0.00000000E+00  0.00000000E+00  0.00000000E+00
  0.00000000E+00  0.00000000E+00  0.00000000E+00
  0.00000000E+00  0.00000000E+00  0.00000000E+00
  0.00000000E+00  0.00000000E+00  0.00000000E+00
  0.00000000E+00  0.00000000E+00  0.00000000E+00
  0.00000000E+00  0.00000000E+00  0.00000000E+00
  0.00000000E+00  0.00000000E+00  0.00000000E+00
  0.00000000E+00  0.00000000E+00  0.00000000E+00
  0.00000000E+00  0.00000000E+00  0.00000000E+00
  0.00000000E+00  0.00000000E+00  0.00000000E+00
  0.00000000E+00  0.00000000E+00  0.00000000E+00
  0.00000000E+00  0.00000000E+00  0.00000000E+00
  0.00000000E+00  0.00000000E+00  0.00000000E+00
  0.00000000E+00  0.00000000E+00  0.00000000E+00
  0.00000000E+00  0.00000000E+00  0.00000000E+00
  0.00000000E+00  0.00000000E+00  0.00000000E+00
  0.00000000E+00  0.00000000E+00  0.00000000E+00
  0.00000000E+00  0.00000000E+00  0.00000000E+00
  0.00000000E+00  0.00000000E+00  0.00000000E+00
  0.00000000E+00  0.00000000E+00  0.00000000E+00
  0.00000000E+00  0.00000000E+00  0.00000000E+00
  0.00000000E+00  0.00000000E+00  0.00000000E+00
  0.00000000E+00  0.00000000E+00  0.00000000E+00
  0.00000000E+00  0.00000000E+00  0.00000000E+00
  0.00000000E+00  0.00000000E+00  0.00000000E+00
  0.00000000E+00  0.00000000E+00  0.00000000E+00
  0.00000000E+00  0.00000000E+00  0.00000000E+00
  0.00000000E+00  0.00000000E+00  0.00000000E+00
  0.00000000E+00  0.00000000E+00  0.00000000E+00
  0.00000000E+00  0.00000000E+00  0.00000000E+00
  0.00000000E+00  0.00000000E+00  0.00000000E+00
  0.00000000E+00  0.00000000E+00  0.00000000E+00
  0.00000000E+00  0.00000000E+00  0.00000000E+00
  0.00000000E+00  0.00000000E+00  0.00000000E+00
  0.00000000E+00  0.00000000E+00  0.00000000E+00
  0.00000000E+00  0.00000000E+00  0.00000000E+00
  0.00000000E+00  0.00000000E+00  0.00000000E+00
  0.00000000E+00  0.00000000E+00  0.00000000E+00
  0.00000000E+00  0.00000000E+00  0.00000000E+00
  0.00000000E+00  0.00000000E+00  0.00000000E+00
  0.00000000E+00  0.00000000E+00  0.00000000E+00
  0.00000000E+00  0.00000000E+00  0.00000000E+00
  0.00000000E+00  0.00000000E+00  0.00000000E+00
  0.00000000E+00  0.00000000E+00  0.00000000E+00
  0.00000000E+00  0.00000000E+00  0.00000000E+00
  0.00000000E+00  0.00000000E+00  0.00000000E+00
  0.00000000E+00  0.00000000E+00  0.00000000E+00
  0.00000000E+00  0.00000000E+00  0.00000000E+00
  0.00000000E+00  0.00000000E+00  0.00000000E+00
  0.00000000E+00  0.00000000E+00  0.00000000E+00
  0.00000000E+00  0.00000000E+00  0.00000000E+00
  0.00000000E+00  0.00000000E+00  0.00000000E+00
  0.00000000E+00  0.00000000E+00  0.00000000E+00
  0.00000000E+00  0.00000000E+00  0.00000000E+00
  0.00000000E+00  0.00000000E+00  0.00000000E+00
  0.00000000E+00  0.00000000E+00  0.00000000E+00
  0.00000000E+00  0.00000000E+00  0.00000000E+00
  0.00000000E+00  0.00000000E+00  0.00000000E+00
  0.00000000E+00  0.00000000E+00  0.00000000E+00
  0.00000000E+00  0.00000000E+00  0.00000000E+00
  0.00000000E+00  0.00000000E+00  0.00000000E+00
  0.00000000E+00  0.00000000E+00  0.00000000E+00
  0.00000000E+00  0.00000000E+00  0.00000000E+00
  0.00000000E+00  0.00000000E+00  0.00000000E+00
  0.00000000E+00  0.00000000E+00  0.00000000E+00
  0.00000000E+00  0.00000000E+00  0.00000000E+00
  0.00000000E+00  0.00000000E+00  0.00000000E+00
  0.00000000E+00  0.00000000E+00  0.00000000E+00
  0.00000000E+00  0.00000000E+00  0.00000000E+00
  0.00000000E+00  0.00000000E+00  0.00000000E+00
  0.00000000E+00  0.00000000E+00  0.00000000E+00
  0.00000000E+00  0.00000000E+00  0.00000000E+00
  0.00000000E+00  0.00000000E+00  0.00000000E+00
  0.00000000E+00  0.00000000E+00  0.00000000E+00
  0.00000000E+00  0.00000000E+00  0.00000000E+00
  0.00000000E+00  0.00000000E+00  0.00000000E+00
  0.00000000E+00  0.00000000E+00  0.00000000E+00
  0.00000000E+00  0.00000000E+00  0.00000000E+00
  0.00000000E+00  0.00000000E+00  0.00000000E+00
  0.00000000E+00  0.00000000E+00  0.00000000E+00
  0.00000000E+00  0.00000000E+00  0.00000000E+00
  0.00000000E+00  0.00000000E+00  0.00000000E+00
  0.00000000E+00  0.00000000E+00  0.00000000E+00
  0.00000000E+00  0.00000000E+00  0.00000000E+00
  0.00000000E+00  0.00000000E+00  0.00000000E+00
  0.00000000E+00  0.00000000E+00  0.00000000E+00
  0.00000000E+00  0.00000000E+00  0.00000000E+00
