#generated using str2pos                
    1.000000000000000     
    13.1147621542539987    0.0007087023763267   -0.0034506588411685
     0.0007076178100783   13.1099556795423560    0.0018969953985635
    -0.0034503861938986    0.0018964665238546   13.1107677222618300
   Ta   W 
   102    26
Direct
  0.2515668727004546  0.2522331344646948  0.2555870716334510
  0.1286991403540835  0.1229837495508880  0.1269231002782793
  0.4984088768151246  0.2523257990398357  0.2556546061022658
  0.3738942371285212  0.1268662292142108  0.1226454954388699
  0.7499628215355056  0.2500519646432393  0.2503136314763476
  0.6204229542383771  0.1275592178733590  0.1248200056753917
  0.0001926823970903  0.2509031703470701  0.2495025939181631
  0.2499547852912073  0.4962794539692599  0.2538440480752046
  0.1281693081211609  0.3721266596988173  0.1216961680109654
  0.5007733586188282  0.4981678495756395  0.2549153540783444
  0.3757034782910855  0.3719469021806071  0.1208826946288836
  0.7461436367564193  0.4998541739586968  0.2545333832934942
  0.6230736859110850  0.3747543283115100  0.1199781163149201
  0.0024687092480643  0.4965038988227907  0.2518444595324178
  0.8719286676297042  0.3776709418759969  0.1229534490583584
  0.2511550784632459  0.7489428696157567  0.2503582965351244
  0.1237163263329909  0.6270983118094491  0.1278331533323660
  0.5028627889916494  0.7501512611368095  0.2536149732162416
  0.3751643559394008  0.6250466719443658  0.1274224213351329
  0.7457253211719242  0.7503818042882329  0.2535907795167214
  0.6256516434155954  0.6227744672657024  0.1217725362138413
  0.8743500642718327  0.6252862721430863  0.1260537341466242
  0.1237525590410768  0.8766355537944370  0.1314481951909509
  0.5007833844954679  0.0012019788095463  0.2531626563206814
  0.3731154535573028  0.8776985903403792  0.1287012184383408
  0.7488342206118115  0.0001486515073990  0.2501659719957131
  0.6240642260091958  0.8757643900320030  0.1233974531820330
  0.8777709431153276  0.8737674371480837  0.1292244845329769
  0.2531184259994574  0.2527774549258665  0.4966117734206922
  0.1232419409370066  0.1193464775688250  0.3740840918040190
  0.4991630525519867  0.2521960507673782  0.4997010686363564
  0.7488706288948110  0.2509917472747142  0.5007652701966321
  0.6260496877475870  0.1261145419459446  0.3738563800028111
  0.0010341525322726  0.2535387041400238  0.4989742491733952
  0.8780091302554613  0.1210803940559910  0.3765362250870322
  0.2528879409856643  0.4973382379657332  0.5007556680623643
  0.4988422577464131  0.4991616963105906  0.4996603524746699
  0.7487014188945252  0.4987240979664896  0.4971830218917535
  0.0004099128632283  0.4952274066511528  0.4998710713124134
  0.8744849775022274  0.3745973985539071  0.3738164601338998
  0.2533407380400828  0.7478208520884803  0.5023845447703369
  0.1223814864980304  0.6293012332718261  0.3765717760735701
  0.5024429427829624  0.7499920446100307  0.5010549755525754
  0.3736857731393695  0.6266937622889107  0.3744423057558358
  0.7447518428083236  0.7519740804891781  0.4983128120852369
  0.8787814797872808  0.6291986313311431  0.3758089480816599
  0.2532828070345317  0.0026192615433649  0.4998890430293798
  0.1224933042959260  0.8760846484311294  0.3747907659481701
  0.5023237806592579  0.0013532876247542  0.5006659086747420
  0.3718232072258530  0.8761679337714604  0.3742854535588006
  0.7447606473107939 -0.0014688502331016  0.5006215035447690
  0.8811056669837879  0.8751192602748983  0.3752794070628053
  0.1263003319495909  0.1248580472969461  0.6244696491208483
  0.5031200294717858  0.2486567745864146  0.7469371288691642
  0.3725395940247092  0.1258556004978783  0.6277392831274380
  0.7486844436043384  0.2465395980954811  0.7474957468341678
 -0.0030709925476186  0.2512311443605124  0.7479752318514766
  0.8785191891062568  0.1214202703428229  0.6214425855771240
  0.2541391943629284  0.5028651409743273  0.7477612337246721
  0.1276258971089571  0.3726517223090033  0.6281945328516536
  0.4945789672246417  0.5014448279035580  0.7483104390826940
  0.6259516520814019  0.3781485268877621  0.6285044126932914
  0.0001944608259973  0.4977802190058955  0.7479210476616960
  0.2524286904329832  0.7495485469549822  0.7520550234481060
  0.1221833312614822  0.6265862981595418  0.6225456740167460
  0.4970291778459899  0.7501165981436083  0.7493262233100692
  0.7483059220283558  0.7533447086923940  0.7472568141713604
  0.6280264357320756  0.6215668348850086  0.6285472368228538
  0.0020704604830557  0.7513761768848340  0.7534362134144287
  0.8744758380111748  0.6266314330771408  0.6237975382051808
  0.2498449458754324 -0.0044325759785512  0.7532841494303980
  0.1230596749404843  0.8748568353443816  0.6196420557133160
  0.5021220246103005 -0.0000133856464534  0.7497414168336114
  0.3740546930995049  0.8771585735454058  0.6229670333891275
  0.7459011659459355  0.0012551110375407  0.7473228311427303
  0.0030446131812005 -0.0017070887239692  0.7533319482834712
  0.8790216526268348  0.8747956517156618  0.6204868584013793
  0.1287851778590159  0.1294885363233003  0.8750595973212634
  0.3733991907216670  0.1302669443618265  0.8756054414090551
  0.7508251171404333  0.2450359082691094 -0.0001663278882406
 -0.0032844254978058  0.2472018962569044  0.0025994546318353
  0.8756865382587548  0.1249036984437877  0.8726594385231378
  0.2508985379237063  0.5037093441655704 -0.0014445834460915
  0.1292210176019948  0.3712380749902920  0.8745692755025196
  0.4960605872134894  0.5030567635960648 -0.0027309329693912
  0.3750529432825283  0.3693497843248310  0.8769124264605074
  0.6250348422301527  0.3770787580424715  0.8754227662660659
  0.0023633576695129  0.4995417950747221  0.0004079334083531
  0.8702183364099380  0.3775420742406834  0.8756313838218109
  0.2501376041658352  0.7516914066219020 -0.0035548113577338
  0.1237363641555458  0.6225556371335995  0.8741110995631858
  0.4959269657919443  0.7502991796638221 -0.0035893216660735
  0.7506089400639159  0.7518507108279034  0.0006779690819961
  0.6282735017788181  0.6215205205819603  0.8740961776629426
  0.0020766533024545  0.7517842041211782 -0.0027159136358784
  0.8709760604187150  0.6213879716607681  0.8740289645475736
  0.2492735784432267 -0.0048845992732433 -0.0036378645665230
  0.4989129387053911 -0.0012386470223323 -0.0036541889584529
  0.7506883574371673  0.0030788566663948  0.0005019626906315
  0.6261990978809926  0.8739403704920721  0.8761816558320444
  0.0005457955500336  0.0000879034787627 -0.0011883133210943
  0.8726123917132896  0.8748954226637597  0.8741149436763235
  0.8764987825689717  0.1231921083720796  0.1272554608658546
 -0.0003729478633066  0.7495535174267286  0.2493422167870644
  0.2517333637526054  0.0024393653037861  0.2508858875747359
 -0.0017217030721890  0.0021708968613854  0.2478304878729221
  0.3735818491565197  0.1235985980103241  0.3744448110532524
  0.1249327932273069  0.3742579536574906  0.3757090797209886
  0.3757463709932468  0.3756895226546733  0.3756215334025462
  0.6255002847593767  0.3741284332893228  0.3760449180736523
  0.6249034858650621  0.6249002416001782  0.3763166301360477
 -0.0000748709555400  0.7490702371536950  0.5006491027111415
  0.6246929169583160  0.8766069307512834  0.3746092957614536
  0.0006708001862711  0.0009056428237437  0.4999350906689061
  0.2519954197783147  0.2511852235378756  0.7472888339731216
  0.6242212727072226  0.1267336544665771  0.6239895083772808
  0.3751076671418077  0.3730655996651764  0.6274598104098382
  0.7505826320046223  0.4981482499038551  0.7474177566940566
  0.8733523948614361  0.3757938399174728  0.6261198248270048
  0.3759309017435034  0.6256349232672782  0.6237160560636383
  0.6244733740438791  0.8743247330770793  0.6256608910854922
  0.2498333071507650  0.2490342522365954  0.0013177277966815
  0.5020356274593615  0.2488137447666732 -0.0019628249911549
  0.6224108160196408  0.1269407636425770  0.8762099578894865
  0.7491196303283200  0.4993245393820360  0.0006294965735415
  0.3754361194749808  0.6240872518948505  0.8748743331803237
  0.1244788213161922  0.8752962082875602  0.8749667883453278
  0.3762532429544203  0.8761093750109065  0.8745136567740013
 
  0.00000000E+00  0.00000000E+00  0.00000000E+00
  0.00000000E+00  0.00000000E+00  0.00000000E+00
  0.00000000E+00  0.00000000E+00  0.00000000E+00
  0.00000000E+00  0.00000000E+00  0.00000000E+00
  0.00000000E+00  0.00000000E+00  0.00000000E+00
  0.00000000E+00  0.00000000E+00  0.00000000E+00
  0.00000000E+00  0.00000000E+00  0.00000000E+00
  0.00000000E+00  0.00000000E+00  0.00000000E+00
  0.00000000E+00  0.00000000E+00  0.00000000E+00
  0.00000000E+00  0.00000000E+00  0.00000000E+00
  0.00000000E+00  0.00000000E+00  0.00000000E+00
  0.00000000E+00  0.00000000E+00  0.00000000E+00
  0.00000000E+00  0.00000000E+00  0.00000000E+00
  0.00000000E+00  0.00000000E+00  0.00000000E+00
  0.00000000E+00  0.00000000E+00  0.00000000E+00
  0.00000000E+00  0.00000000E+00  0.00000000E+00
  0.00000000E+00  0.00000000E+00  0.00000000E+00
  0.00000000E+00  0.00000000E+00  0.00000000E+00
  0.00000000E+00  0.00000000E+00  0.00000000E+00
  0.00000000E+00  0.00000000E+00  0.00000000E+00
  0.00000000E+00  0.00000000E+00  0.00000000E+00
  0.00000000E+00  0.00000000E+00  0.00000000E+00
  0.00000000E+00  0.00000000E+00  0.00000000E+00
  0.00000000E+00  0.00000000E+00  0.00000000E+00
  0.00000000E+00  0.00000000E+00  0.00000000E+00
  0.00000000E+00  0.00000000E+00  0.00000000E+00
  0.00000000E+00  0.00000000E+00  0.00000000E+00
  0.00000000E+00  0.00000000E+00  0.00000000E+00
  0.00000000E+00  0.00000000E+00  0.00000000E+00
  0.00000000E+00  0.00000000E+00  0.00000000E+00
  0.00000000E+00  0.00000000E+00  0.00000000E+00
  0.00000000E+00  0.00000000E+00  0.00000000E+00
  0.00000000E+00  0.00000000E+00  0.00000000E+00
  0.00000000E+00  0.00000000E+00  0.00000000E+00
  0.00000000E+00  0.00000000E+00  0.00000000E+00
  0.00000000E+00  0.00000000E+00  0.00000000E+00
  0.00000000E+00  0.00000000E+00  0.00000000E+00
  0.00000000E+00  0.00000000E+00  0.00000000E+00
  0.00000000E+00  0.00000000E+00  0.00000000E+00
  0.00000000E+00  0.00000000E+00  0.00000000E+00
  0.00000000E+00  0.00000000E+00  0.00000000E+00
  0.00000000E+00  0.00000000E+00  0.00000000E+00
  0.00000000E+00  0.00000000E+00  0.00000000E+00
  0.00000000E+00  0.00000000E+00  0.00000000E+00
  0.00000000E+00  0.00000000E+00  0.00000000E+00
  0.00000000E+00  0.00000000E+00  0.00000000E+00
  0.00000000E+00  0.00000000E+00  0.00000000E+00
  0.00000000E+00  0.00000000E+00  0.00000000E+00
  0.00000000E+00  0.00000000E+00  0.00000000E+00
  0.00000000E+00  0.00000000E+00  0.00000000E+00
  0.00000000E+00  0.00000000E+00  0.00000000E+00
  0.00000000E+00  0.00000000E+00  0.00000000E+00
  0.00000000E+00  0.00000000E+00  0.00000000E+00
  0.00000000E+00  0.00000000E+00  0.00000000E+00
  0.00000000E+00  0.00000000E+00  0.00000000E+00
  0.00000000E+00  0.00000000E+00  0.00000000E+00
  0.00000000E+00  0.00000000E+00  0.00000000E+00
  0.00000000E+00  0.00000000E+00  0.00000000E+00
  0.00000000E+00  0.00000000E+00  0.00000000E+00
  0.00000000E+00  0.00000000E+00  0.00000000E+00
  0.00000000E+00  0.00000000E+00  0.00000000E+00
  0.00000000E+00  0.00000000E+00  0.00000000E+00
  0.00000000E+00  0.00000000E+00  0.00000000E+00
  0.00000000E+00  0.00000000E+00  0.00000000E+00
  0.00000000E+00  0.00000000E+00  0.00000000E+00
  0.00000000E+00  0.00000000E+00  0.00000000E+00
  0.00000000E+00  0.00000000E+00  0.00000000E+00
  0.00000000E+00  0.00000000E+00  0.00000000E+00
  0.00000000E+00  0.00000000E+00  0.00000000E+00
  0.00000000E+00  0.00000000E+00  0.00000000E+00
  0.00000000E+00  0.00000000E+00  0.00000000E+00
  0.00000000E+00  0.00000000E+00  0.00000000E+00
  0.00000000E+00  0.00000000E+00  0.00000000E+00
  0.00000000E+00  0.00000000E+00  0.00000000E+00
  0.00000000E+00  0.00000000E+00  0.00000000E+00
  0.00000000E+00  0.00000000E+00  0.00000000E+00
  0.00000000E+00  0.00000000E+00  0.00000000E+00
  0.00000000E+00  0.00000000E+00  0.00000000E+00
  0.00000000E+00  0.00000000E+00  0.00000000E+00
  0.00000000E+00  0.00000000E+00  0.00000000E+00
  0.00000000E+00  0.00000000E+00  0.00000000E+00
  0.00000000E+00  0.00000000E+00  0.00000000E+00
  0.00000000E+00  0.00000000E+00  0.00000000E+00
  0.00000000E+00  0.00000000E+00  0.00000000E+00
  0.00000000E+00  0.00000000E+00  0.00000000E+00
  0.00000000E+00  0.00000000E+00  0.00000000E+00
  0.00000000E+00  0.00000000E+00  0.00000000E+00
  0.00000000E+00  0.00000000E+00  0.00000000E+00
  0.00000000E+00  0.00000000E+00  0.00000000E+00
  0.00000000E+00  0.00000000E+00  0.00000000E+00
  0.00000000E+00  0.00000000E+00  0.00000000E+00
  0.00000000E+00  0.00000000E+00  0.00000000E+00
  0.00000000E+00  0.00000000E+00  0.00000000E+00
  0.00000000E+00  0.00000000E+00  0.00000000E+00
  0.00000000E+00  0.00000000E+00  0.00000000E+00
  0.00000000E+00  0.00000000E+00  0.00000000E+00
  0.00000000E+00  0.00000000E+00  0.00000000E+00
  0.00000000E+00  0.00000000E+00  0.00000000E+00
  0.00000000E+00  0.00000000E+00  0.00000000E+00
  0.00000000E+00  0.00000000E+00  0.00000000E+00
  0.00000000E+00  0.00000000E+00  0.00000000E+00
  0.00000000E+00  0.00000000E+00  0.00000000E+00
  0.00000000E+00  0.00000000E+00  0.00000000E+00
  0.00000000E+00  0.00000000E+00  0.00000000E+00
  0.00000000E+00  0.00000000E+00  0.00000000E+00
  0.00000000E+00  0.00000000E+00  0.00000000E+00
  0.00000000E+00  0.00000000E+00  0.00000000E+00
  0.00000000E+00  0.00000000E+00  0.00000000E+00
  0.00000000E+00  0.00000000E+00  0.00000000E+00
  0.00000000E+00  0.00000000E+00  0.00000000E+00
  0.00000000E+00  0.00000000E+00  0.00000000E+00
  0.00000000E+00  0.00000000E+00  0.00000000E+00
  0.00000000E+00  0.00000000E+00  0.00000000E+00
  0.00000000E+00  0.00000000E+00  0.00000000E+00
  0.00000000E+00  0.00000000E+00  0.00000000E+00
  0.00000000E+00  0.00000000E+00  0.00000000E+00
  0.00000000E+00  0.00000000E+00  0.00000000E+00
  0.00000000E+00  0.00000000E+00  0.00000000E+00
  0.00000000E+00  0.00000000E+00  0.00000000E+00
  0.00000000E+00  0.00000000E+00  0.00000000E+00
  0.00000000E+00  0.00000000E+00  0.00000000E+00
  0.00000000E+00  0.00000000E+00  0.00000000E+00
  0.00000000E+00  0.00000000E+00  0.00000000E+00
  0.00000000E+00  0.00000000E+00  0.00000000E+00
  0.00000000E+00  0.00000000E+00  0.00000000E+00
  0.00000000E+00  0.00000000E+00  0.00000000E+00
  0.00000000E+00  0.00000000E+00  0.00000000E+00
  0.00000000E+00  0.00000000E+00  0.00000000E+00
