#BCC aalvarado POSCAR generator         
    12.76000000000000     
     1.0276242748447006   -0.0005627662274977   -0.0001755723309589
    -0.0005628333168696    1.0273038882291639   -0.0006324569960632
    -0.0001755971131788   -0.0006322037719657    1.0271115701345110
   Ta   W 
   102    26
Direct
  0.6231507903031176  0.6241784066899790  0.6239668654939942
  0.6254415287455798  0.6258226797161064  0.3746168383106819
  0.6244091734810510  0.3746172917521361  0.3767226761037811
  0.3723921528152491  0.3735502022713324  0.3790765726252476
  0.6254362961043671  0.3772999912091054  0.6257905206596064
  0.3715248376925903  0.3731643729166831  0.6243244324064543
  0.3732340025582646  0.6232221711950010  0.3768667542234178
  0.3720347727146108  0.6217554220296589  0.6223455708616258
  0.7465653556727879  0.7501685524448412  0.7502445007745117
  0.7482473555753258  0.7508903616128011  0.5035269836981533
  0.7538866539413885  0.5009557910269580  0.5000500087017813
  0.7493338700596370  0.5053461689352287  0.7494955918997362
  0.4985875707299459  0.5037478668713055  0.7533392491358980
  0.4985542894360934  0.7524398624599615  0.5032032933054384
  0.4993720539570239  0.7513358498787428  0.7510722059497149
  0.7528876977837572  0.4955491412347370  0.2495446978447089
  0.5023071676862636  0.4974034518378566  0.2478461777361651
  0.5014585617817663  0.7504645708276625  0.2479878070522916
  0.7503950439575768  0.2520286128579854  0.2478281875430819
  0.7514509042891288  0.2497068023314161  0.4991394117656925
  0.5029979429296719  0.2483657620017977  0.5012654247516612
  0.2520927340397024  0.2489376894633281  0.2497093497947116
  0.2487383527326016  0.5001327431336450  0.2493099793142549
  0.7495471065814201  0.2488843509088390  0.7487156128853364
  0.5027710273296836  0.2476409918912244  0.7480546136192462
  0.2484698718156428  0.4998016031677846  0.7526282560082421
  0.2482997295232846  0.7511795523602741  0.2531291701314582
  0.2494173261576280  0.7545798347551890  0.5021693808938101
  0.2510723309112360  0.7502822939131732  0.7478343217788297
  0.8767321160940373  0.8730799345836453  0.8759388113059495
  0.8753600747784501  0.8740627651290993  0.6238983450499977
  0.8763094633316189  0.6245259151652096  0.8767560127170159
  0.8740311039635289  0.8736526149112912  0.3768357685818182
  0.8755613663122985  0.6283364355526616  0.3759538484662850
  0.6217919028656700  0.8785829838701562  0.3747057345352366
  0.8757867083495029  0.3768868977886768  0.6288174493042296
  0.8733908815700613  0.3797859364172508  0.8741787103445464
  0.6272980001905083  0.3760151441018186  0.8746297091800094
  0.3749884627242581  0.3713222639188294  0.8725276248845335
  0.3795394815053014  0.8783316329082330  0.3738041394070452
  0.3738454569790373  0.8765584681974973  0.8752124665633703
  0.8770955216261425  0.8731538810303729  0.1226878711750700
  0.8740403303627382  0.6260941951969261  0.1209609384845101
  0.6276252505963534  0.6236077913049375  0.1239837276111535
  0.3743883117931132  0.3748727590316451  0.1242205022117817
  0.3751307275582482  0.6248611372232736  0.1259604349332624
  0.3759813446044040  0.8762121176427980  0.1264575225056741
  0.8779143424291095  0.1256794398633642  0.1267866408058690
  0.8769198769667318  0.1250495298888256  0.3738980897465312
  0.6227030829285350  0.1218909966543977  0.3745054660256938
  0.3762130814814303  0.1227822662662253  0.1272200399048445
  0.3770122889043253  0.1235248517122377  0.3768086348706733
  0.8768511654611606  0.1250041963829796  0.6252038682574693
  0.3730828936263334  0.1268943745549633  0.6225224037906671
  0.1241477577834871  0.1264573758134544  0.1274105526887235
  0.1262693420964786  0.1295361067836043  0.3767792142061154
  0.1247290656497271  0.3734118415532827  0.1282694814385286
  0.1276405466170044  0.3735348551695524  0.3770023984729946
  0.1290757882015408  0.1291677918014540  0.6248569732604774
  0.1219363340161918  0.6260129404188016  0.1232415203332117
  0.1242128962239114  0.6229811980730520  0.3793781783672700
  0.1235312813363925  0.6221184302597528  0.6243915462906562
  0.8743502218126483  0.1250873347911706  0.8747908740448626
  0.6256856825607833  0.1264852707074982  0.8749306128292227
  0.3747575859312316  0.1258912126132258  0.8723970506244118
  0.1273876269318722  0.1260429208919609  0.8721292728250737
  0.1194967744513093  0.6252429007246252  0.8740139329233988
  0.1231461695084296  0.8726283118131329  0.1216850498677587
  0.1229834906616535  0.8722919595875115  0.8774160715421450
 -0.0002186471437753  0.0027896100408440 -0.0005120621834665
  0.0027438569271940 -0.0017721581430309  0.7470807076829026
 -0.0004141099104032  0.7498241879268763  0.7460130863224669
  0.7441432789766028  0.7521347345874017 -0.0027446757222203
  0.7456847789774476 -0.0024490441885838  0.7487801523415033
  0.7460424451136819 -0.0007584079228184  0.0011211786524239
  0.0040392498500801 -0.0016697690178786  0.5000804382213248
  0.7483263336753553  0.0004929858200655  0.5024371813431732
 -0.0030491996594486  0.4979736701842001  0.5007597833200664
 -0.0003439833610431  0.4952085494214939  0.0015045178828778
  0.5002431603030790  0.5014730517464991 -0.0023490969523500
  0.5018806027553105  0.7499341420569260 -0.0039725857481475
  0.5015583622066890 -0.0031792990711674  0.7475960543921084
  0.5039932293218091 -0.0012014456392206 -0.0004734524138378
  0.0023055516183232 -0.0021454989636583  0.2536990779334055
  0.0011774213169832  0.7506530483225708  0.2529681404468440
  0.7491345136212046  0.0007195872197730  0.2470284536158140
 -0.0034628589113348  0.4979408146642388  0.2508890293948333
 -0.0006114770512004  0.2538331807527052  0.5015416678500377
  0.0020806820951882  0.2530999899667995  0.7502908005627794
 -0.0000220803728629  0.2539286672413961 -0.0006672840412314
  0.7500474621536964  0.2515832069759565  0.0047115294690972
  0.5039296226398985  0.2496037123114084  0.0029475418715601
  0.2487438761608088  0.2514574495446142 -0.0003492951019118
  0.2493086173657235  0.4995030413760738 -0.0035467264420571
  0.2535932801230754  0.7469732761596176 -0.0029489945315928
  0.2477563121974470 -0.0015455823909630  0.2531297918164749
  0.2482952702854813 -0.0048935955351210  0.5009299739133495
  0.2510511245799793 -0.0044936059788314  0.7458350097749552
  0.2510126981704899  0.0005246093432089 -0.0003383674297773
  0.5002983846116749  0.4997659209953083  0.5002403821648421
  0.7482961181615631  0.7524894867619660  0.2476320373506856
  0.5034887690241102  0.2502956496087244  0.2473985608720810
  0.2493338838023268  0.2497602631522899  0.5010058125168082
  0.2467199260385299  0.4991662541252214  0.5027195889637363
  0.2480324849340113  0.2525152471523194  0.7500410298680239
  0.8767259969837558  0.6256261059386569  0.6261206125252141
  0.6267747929792287  0.6239118959124829  0.8756446838450537
  0.6239940793252923  0.8750626831241213  0.6231670503351568
  0.6246837160624572  0.8753555142112700  0.8742116439527255
  0.8769076894554416  0.3739685044087627  0.3750419378352416
  0.3737188965948866  0.6250554671046475  0.8737581840320738
  0.3760967065859379  0.8758869713031506  0.6236228019875667
  0.6240328478016000  0.8754116012667027  0.1263864414674938
  0.8757735874964110  0.3754632097178944  0.1244051657631541
  0.6267432316178854  0.3770764041716687  0.1230045695227163
  0.6247512018486534  0.1241246514935074  0.1262260530233978
  0.6235710624993162  0.1242762991667956  0.6232405279468735
  0.1267251020025552  0.3758265700738149  0.6251702123854680
  0.1242997606611907  0.3758349254427984  0.8727548913163607
  0.1242224401237472  0.8735713615918771  0.3762031919413277
  0.1234055275737930  0.8725274392248599  0.6245332338239243
 -0.0013059001165256  0.7484896972392407 -0.0009161412258959
  0.0009885330587425  0.7499895093185955  0.5017785294046246
  0.0005978513607510  0.4999298287522788  0.7492026322625941
  0.7489329949074367  0.4998197294625296  0.0006501133540093
  0.4999809257495234 -0.0007724501886519  0.5035666157897927
  0.5022960487554988  0.0007028986490368  0.2474981100117727
 -0.0020763360172345  0.2522138800125896  0.2512780050741408
 
  0.00000000E+00  0.00000000E+00  0.00000000E+00
  0.00000000E+00  0.00000000E+00  0.00000000E+00
  0.00000000E+00  0.00000000E+00  0.00000000E+00
  0.00000000E+00  0.00000000E+00  0.00000000E+00
  0.00000000E+00  0.00000000E+00  0.00000000E+00
  0.00000000E+00  0.00000000E+00  0.00000000E+00
  0.00000000E+00  0.00000000E+00  0.00000000E+00
  0.00000000E+00  0.00000000E+00  0.00000000E+00
  0.00000000E+00  0.00000000E+00  0.00000000E+00
  0.00000000E+00  0.00000000E+00  0.00000000E+00
  0.00000000E+00  0.00000000E+00  0.00000000E+00
  0.00000000E+00  0.00000000E+00  0.00000000E+00
  0.00000000E+00  0.00000000E+00  0.00000000E+00
  0.00000000E+00  0.00000000E+00  0.00000000E+00
  0.00000000E+00  0.00000000E+00  0.00000000E+00
  0.00000000E+00  0.00000000E+00  0.00000000E+00
  0.00000000E+00  0.00000000E+00  0.00000000E+00
  0.00000000E+00  0.00000000E+00  0.00000000E+00
  0.00000000E+00  0.00000000E+00  0.00000000E+00
  0.00000000E+00  0.00000000E+00  0.00000000E+00
  0.00000000E+00  0.00000000E+00  0.00000000E+00
  0.00000000E+00  0.00000000E+00  0.00000000E+00
  0.00000000E+00  0.00000000E+00  0.00000000E+00
  0.00000000E+00  0.00000000E+00  0.00000000E+00
  0.00000000E+00  0.00000000E+00  0.00000000E+00
  0.00000000E+00  0.00000000E+00  0.00000000E+00
  0.00000000E+00  0.00000000E+00  0.00000000E+00
  0.00000000E+00  0.00000000E+00  0.00000000E+00
  0.00000000E+00  0.00000000E+00  0.00000000E+00
  0.00000000E+00  0.00000000E+00  0.00000000E+00
  0.00000000E+00  0.00000000E+00  0.00000000E+00
  0.00000000E+00  0.00000000E+00  0.00000000E+00
  0.00000000E+00  0.00000000E+00  0.00000000E+00
  0.00000000E+00  0.00000000E+00  0.00000000E+00
  0.00000000E+00  0.00000000E+00  0.00000000E+00
  0.00000000E+00  0.00000000E+00  0.00000000E+00
  0.00000000E+00  0.00000000E+00  0.00000000E+00
  0.00000000E+00  0.00000000E+00  0.00000000E+00
  0.00000000E+00  0.00000000E+00  0.00000000E+00
  0.00000000E+00  0.00000000E+00  0.00000000E+00
  0.00000000E+00  0.00000000E+00  0.00000000E+00
  0.00000000E+00  0.00000000E+00  0.00000000E+00
  0.00000000E+00  0.00000000E+00  0.00000000E+00
  0.00000000E+00  0.00000000E+00  0.00000000E+00
  0.00000000E+00  0.00000000E+00  0.00000000E+00
  0.00000000E+00  0.00000000E+00  0.00000000E+00
  0.00000000E+00  0.00000000E+00  0.00000000E+00
  0.00000000E+00  0.00000000E+00  0.00000000E+00
  0.00000000E+00  0.00000000E+00  0.00000000E+00
  0.00000000E+00  0.00000000E+00  0.00000000E+00
  0.00000000E+00  0.00000000E+00  0.00000000E+00
  0.00000000E+00  0.00000000E+00  0.00000000E+00
  0.00000000E+00  0.00000000E+00  0.00000000E+00
  0.00000000E+00  0.00000000E+00  0.00000000E+00
  0.00000000E+00  0.00000000E+00  0.00000000E+00
  0.00000000E+00  0.00000000E+00  0.00000000E+00
  0.00000000E+00  0.00000000E+00  0.00000000E+00
  0.00000000E+00  0.00000000E+00  0.00000000E+00
  0.00000000E+00  0.00000000E+00  0.00000000E+00
  0.00000000E+00  0.00000000E+00  0.00000000E+00
  0.00000000E+00  0.00000000E+00  0.00000000E+00
  0.00000000E+00  0.00000000E+00  0.00000000E+00
  0.00000000E+00  0.00000000E+00  0.00000000E+00
  0.00000000E+00  0.00000000E+00  0.00000000E+00
  0.00000000E+00  0.00000000E+00  0.00000000E+00
  0.00000000E+00  0.00000000E+00  0.00000000E+00
  0.00000000E+00  0.00000000E+00  0.00000000E+00
  0.00000000E+00  0.00000000E+00  0.00000000E+00
  0.00000000E+00  0.00000000E+00  0.00000000E+00
  0.00000000E+00  0.00000000E+00  0.00000000E+00
  0.00000000E+00  0.00000000E+00  0.00000000E+00
  0.00000000E+00  0.00000000E+00  0.00000000E+00
  0.00000000E+00  0.00000000E+00  0.00000000E+00
  0.00000000E+00  0.00000000E+00  0.00000000E+00
  0.00000000E+00  0.00000000E+00  0.00000000E+00
  0.00000000E+00  0.00000000E+00  0.00000000E+00
  0.00000000E+00  0.00000000E+00  0.00000000E+00
  0.00000000E+00  0.00000000E+00  0.00000000E+00
  0.00000000E+00  0.00000000E+00  0.00000000E+00
  0.00000000E+00  0.00000000E+00  0.00000000E+00
  0.00000000E+00  0.00000000E+00  0.00000000E+00
  0.00000000E+00  0.00000000E+00  0.00000000E+00
  0.00000000E+00  0.00000000E+00  0.00000000E+00
  0.00000000E+00  0.00000000E+00  0.00000000E+00
  0.00000000E+00  0.00000000E+00  0.00000000E+00
  0.00000000E+00  0.00000000E+00  0.00000000E+00
  0.00000000E+00  0.00000000E+00  0.00000000E+00
  0.00000000E+00  0.00000000E+00  0.00000000E+00
  0.00000000E+00  0.00000000E+00  0.00000000E+00
  0.00000000E+00  0.00000000E+00  0.00000000E+00
  0.00000000E+00  0.00000000E+00  0.00000000E+00
  0.00000000E+00  0.00000000E+00  0.00000000E+00
  0.00000000E+00  0.00000000E+00  0.00000000E+00
  0.00000000E+00  0.00000000E+00  0.00000000E+00
  0.00000000E+00  0.00000000E+00  0.00000000E+00
  0.00000000E+00  0.00000000E+00  0.00000000E+00
  0.00000000E+00  0.00000000E+00  0.00000000E+00
  0.00000000E+00  0.00000000E+00  0.00000000E+00
  0.00000000E+00  0.00000000E+00  0.00000000E+00
  0.00000000E+00  0.00000000E+00  0.00000000E+00
  0.00000000E+00  0.00000000E+00  0.00000000E+00
  0.00000000E+00  0.00000000E+00  0.00000000E+00
  0.00000000E+00  0.00000000E+00  0.00000000E+00
  0.00000000E+00  0.00000000E+00  0.00000000E+00
  0.00000000E+00  0.00000000E+00  0.00000000E+00
  0.00000000E+00  0.00000000E+00  0.00000000E+00
  0.00000000E+00  0.00000000E+00  0.00000000E+00
  0.00000000E+00  0.00000000E+00  0.00000000E+00
  0.00000000E+00  0.00000000E+00  0.00000000E+00
  0.00000000E+00  0.00000000E+00  0.00000000E+00
  0.00000000E+00  0.00000000E+00  0.00000000E+00
  0.00000000E+00  0.00000000E+00  0.00000000E+00
  0.00000000E+00  0.00000000E+00  0.00000000E+00
  0.00000000E+00  0.00000000E+00  0.00000000E+00
  0.00000000E+00  0.00000000E+00  0.00000000E+00
  0.00000000E+00  0.00000000E+00  0.00000000E+00
  0.00000000E+00  0.00000000E+00  0.00000000E+00
  0.00000000E+00  0.00000000E+00  0.00000000E+00
  0.00000000E+00  0.00000000E+00  0.00000000E+00
  0.00000000E+00  0.00000000E+00  0.00000000E+00
  0.00000000E+00  0.00000000E+00  0.00000000E+00
  0.00000000E+00  0.00000000E+00  0.00000000E+00
  0.00000000E+00  0.00000000E+00  0.00000000E+00
  0.00000000E+00  0.00000000E+00  0.00000000E+00
  0.00000000E+00  0.00000000E+00  0.00000000E+00
  0.00000000E+00  0.00000000E+00  0.00000000E+00
  0.00000000E+00  0.00000000E+00  0.00000000E+00
  0.00000000E+00  0.00000000E+00  0.00000000E+00
