#BCC aalvarado POSCAR generator         
    12.76000000000000     
     1.0278386436817717   -0.0000435817777681    0.0005557871415064
    -0.0000437582899477    1.0275908491057695   -0.0002133136173399
     0.0005560726590917   -0.0002132634139396    1.0267338294410508
   Ta   W 
   102    26
Direct
  0.5016286346765215  0.5034445874945824  0.5017543772316987
  0.6294847638241129  0.3772973368749749  0.3755743456758915
  0.3758829114929056  0.3757208007492848  0.3755817687962394
  0.6247617567186179  0.3743619206183269  0.6257350685834832
  0.3754008071295742  0.3720972810630286  0.6285989449297383
  0.3739349371997172  0.6259024773529454  0.3754718312656081
  0.3711294435003372  0.6281582409398611  0.6259193599854421
  0.7506641960235674  0.7480808426194112  0.7482891075257658
  0.7483286078339882  0.7493049679705051  0.5017679179431020
  0.7491151277146135  0.5031487990090234  0.7501481632838217
  0.4984146631548911  0.5027751063149362  0.7511590738115832
  0.5026552360259272  0.7477626420716817  0.5015646846717778
  0.5005780560069656  0.7465728850316670  0.7506006993311491
  0.7494455608202466  0.7468425307916242  0.2496813362491619
  0.5015424619948126  0.5014886209605822  0.2528105256744339
  0.5016393331676057  0.7483026621144888  0.2511430871694300
  0.7520613360975750  0.2479898964508713  0.2519200125694778
  0.5002426286980777  0.2506452295933089  0.2512365679206813
  0.7533511298212110  0.2463373896990676  0.5002062585436623
  0.5000873506852533  0.2504662363803639  0.4998361652192017
  0.2498519418929890  0.2503872220451469  0.2493433943809030
  0.2489878303762341  0.2514749856829698  0.4996835106494070
  0.2512174650612124  0.5002279392416897  0.2493832735657214
  0.2490281462047180  0.5006331400193186  0.5014074421703194
  0.7527145706571792  0.2488751906552097  0.7481700537046353
  0.2528593155994441  0.5008034418193599  0.7535125231028230
  0.2490187495770939  0.7519031364449354  0.2513081531032337
  0.2477196446609626  0.7513784178695102  0.4974167240397651
  0.8794330447445045  0.8750574523914154  0.8712820764977950
  0.8772239484400429  0.6260572201961550  0.6217928220074461
  0.6256708458513073  0.6207181829966786  0.8794771192825552
  0.6247801022980526  0.8755569197805732  0.6252896523043016
  0.6259051376475634  0.8738096192562728  0.8742622446022438
  0.8774343543428977  0.8686252405467418  0.3746235710569502
  0.8767792766882300  0.6245002062564444  0.3744567892372509
  0.6261820120034421  0.8747329899306097  0.3754058663415449
  0.8730105040443153  0.3815366045952565  0.3732699059367175
  0.8723743477704723  0.3787248401266728  0.6225713421739503
  0.8720482126627203  0.3761206637436970  0.8769109575130447
  0.6231437070451247  0.3749824962433783  0.8780059580381292
  0.3736860127455085  0.8766871760104068  0.3781484328951665
  0.3695014008877655  0.8770395075960180  0.6269268446866065
  0.3695371887982480  0.8776206037051449  0.8722876316808067
  0.8775486168222552  0.8717973125692696  0.1273305723721256
  0.6268629916921902  0.6194651154519449  0.1227558935544699
  0.6262848864521463  0.8731587838474095  0.1248393370615801
  0.8728192605041019  0.3790637663144665  0.1265918876007281
  0.6263042133247622  0.3774675998150219  0.1230661514796740
  0.3796936292340373  0.3755842367822023  0.1221091860019241
  0.3777153745877876  0.6229476838031988  0.1247320835998878
  0.3728077041173093  0.8763446125797445  0.1223262685399024
  0.8757572210879784  0.1244791397473891  0.1234675768115394
  0.6234436088885904  0.1278249381624081  0.1229777754289340
  0.6237750390111947  0.1251038152916249  0.3757580422659353
  0.3751419120769890  0.1257536308159941  0.1199973366906349
  0.3729733691080584  0.1231319951683081  0.3780512630561117
  0.6219116447197063  0.1268942177827030  0.6274302068831440
  0.3716991033326462  0.1247217409089609  0.6292525811982208
  0.1274924901331859  0.1228126559999615  0.1220680345238453
  0.1278667916369515  0.1233762782066277  0.3782102277176806
  0.1219449586868161  0.3785844687197610  0.1262843083084348
  0.1216341536467674  0.3772852518114464  0.3739805301288336
  0.1285035447549827  0.1212373043327079  0.6278325834560633
  0.1261357273535964  0.3731691254375368  0.6272250161263661
  0.1213945428297737  0.6253383338966114  0.1278521114349210
  0.1189429351197067  0.6264466924952673  0.3737008336909411
  0.1227357673338566  0.6313880276021864  0.6262205688739350
  0.8777734727264059  0.1225587583722388  0.8742067674527151
  0.6212458052949581  0.1287634568942013  0.8743945120724967
  0.3735083051919710  0.1259567021017347  0.8731832892660717
  0.1286880983919914  0.1215690116600951  0.8714359785084174
  0.1257226099262584  0.3739059986270400  0.8728251650667778
  0.1244779832816082  0.6292750549399605  0.8712262278175181
  0.1243887502581795  0.8735635890128836  0.1238022401952772
  0.1248266381995663  0.8758391608245579  0.6272344930201993
  0.1261240422662394  0.8759515644439201  0.8702315051409080
  0.0001927589868275 -0.0012295753845865  0.0000723625660934
 -0.0020842341419206  0.7470186657399177 -0.0011569698227223
  0.7538749430343903  0.7474668090523243 -0.0010885132992739
  0.7519713554895973 -0.0006386428697430  0.7461781794014506
  0.7509888331044789 -0.0010079825475714 -0.0006990135079130
 -0.0027042838858036  0.0001143204824583  0.4995889275939031
  0.7549575166554264  0.0005854847247215  0.5016368206711833
  0.0010691840556019  0.4998206567405887  0.5022004761247574
 -0.0017240225002526  0.5009578614488174  0.7518587145179145
 -0.0021943897236387  0.5036862447679537 -0.0025587489092311
  0.4980053794279877  0.7484669878187489 -0.0025606630565723
  0.5005877192481097 -0.0002269610171978  0.5015724135679800
  0.5010533768565633 -0.0015516211705438  0.7500096084979403
  0.5010887402417217 -0.0014932654602130 -0.0010465282306426
  0.0010261505240087  0.0002342358829615  0.2537164049876656
  0.7528693232255087  0.0005502120428619  0.2524190797270757
  0.4996191711109411 -0.0003800820679757  0.2498408101699078
 -0.0013560253110825  0.2468581211812281  0.2522329751292959
 -0.0029967387984665  0.2465288133585987  0.5002841587747938
 -0.0028237886101292  0.2492290762895880  0.7476134380459321
  0.0010622858455315  0.2502630194779169 -0.0005697909828236
  0.7515767320614513  0.2489630697336543 -0.0002028580928146
  0.2499795837044940  0.2541804746058224 -0.0009974658746472
  0.2518346546645123  0.5010751495135435 -0.0034710182710412
  0.2510300242709146  0.7462120374802299 -0.0008534638797526
  0.2476184455996266 -0.0016895038346450  0.2510737916875522
  0.2469186633706593 -0.0014825421747984  0.4994699772611237
  0.2497355339549799  0.0000185090578563  0.7497575042354250
  0.6266627921575224  0.6234481113498912  0.6249244950955497
  0.6292517457901771  0.6225237297544325  0.3741825823486433
  0.7477825521621415  0.5030026741590529  0.5009632949627437
  0.7494396336640105  0.5022857061848943  0.2500868411611538
  0.4992176133508273  0.2523444644488201  0.7512655286880006
  0.2502792539657746  0.2517173450910090  0.7516203943046478
  0.2503316058441646  0.7492390480752578  0.7505675300232674
  0.8795980538998383  0.8723228891065301  0.6246739022702262
  0.8746529232206796  0.6256254008770817  0.8739950632073910
  0.3781541887105674  0.3722509736940871  0.8751304499686903
  0.3750803995942638  0.6253559696872100  0.8748886541989281
  0.8741392602809323  0.6226841374755383  0.1278889881169368
  0.8758342159119263  0.1241956261253510  0.3751375092577078
  0.8771772475002085  0.1232659169769146  0.6265628682114024
  0.1228722700531722  0.8734389970152939  0.3776609967371182
 -0.0019733075094867 -0.0001415552490630  0.7461104024308911
 -0.0027230667121499  0.7506651835336329  0.7494365947366420
 -0.0003928887076830  0.7536038869208131  0.5001356418749391
  0.7523721901401339  0.5015961600348444 -0.0003176739363789
  0.4984137429614886  0.4998803313764733 -0.0020456736523143
 -0.0005071354126830  0.7503389490039255  0.2493903284264642
 -0.0018373453262736  0.5013838259992466  0.2481850137522150
  0.4987108756946214  0.2517603217008004 -0.0009151196812502
  0.2496843917246724 -0.0002313418880740 -0.0003853622350670
 
  0.00000000E+00  0.00000000E+00  0.00000000E+00
  0.00000000E+00  0.00000000E+00  0.00000000E+00
  0.00000000E+00  0.00000000E+00  0.00000000E+00
  0.00000000E+00  0.00000000E+00  0.00000000E+00
  0.00000000E+00  0.00000000E+00  0.00000000E+00
  0.00000000E+00  0.00000000E+00  0.00000000E+00
  0.00000000E+00  0.00000000E+00  0.00000000E+00
  0.00000000E+00  0.00000000E+00  0.00000000E+00
  0.00000000E+00  0.00000000E+00  0.00000000E+00
  0.00000000E+00  0.00000000E+00  0.00000000E+00
  0.00000000E+00  0.00000000E+00  0.00000000E+00
  0.00000000E+00  0.00000000E+00  0.00000000E+00
  0.00000000E+00  0.00000000E+00  0.00000000E+00
  0.00000000E+00  0.00000000E+00  0.00000000E+00
  0.00000000E+00  0.00000000E+00  0.00000000E+00
  0.00000000E+00  0.00000000E+00  0.00000000E+00
  0.00000000E+00  0.00000000E+00  0.00000000E+00
  0.00000000E+00  0.00000000E+00  0.00000000E+00
  0.00000000E+00  0.00000000E+00  0.00000000E+00
  0.00000000E+00  0.00000000E+00  0.00000000E+00
  0.00000000E+00  0.00000000E+00  0.00000000E+00
  0.00000000E+00  0.00000000E+00  0.00000000E+00
  0.00000000E+00  0.00000000E+00  0.00000000E+00
  0.00000000E+00  0.00000000E+00  0.00000000E+00
  0.00000000E+00  0.00000000E+00  0.00000000E+00
  0.00000000E+00  0.00000000E+00  0.00000000E+00
  0.00000000E+00  0.00000000E+00  0.00000000E+00
  0.00000000E+00  0.00000000E+00  0.00000000E+00
  0.00000000E+00  0.00000000E+00  0.00000000E+00
  0.00000000E+00  0.00000000E+00  0.00000000E+00
  0.00000000E+00  0.00000000E+00  0.00000000E+00
  0.00000000E+00  0.00000000E+00  0.00000000E+00
  0.00000000E+00  0.00000000E+00  0.00000000E+00
  0.00000000E+00  0.00000000E+00  0.00000000E+00
  0.00000000E+00  0.00000000E+00  0.00000000E+00
  0.00000000E+00  0.00000000E+00  0.00000000E+00
  0.00000000E+00  0.00000000E+00  0.00000000E+00
  0.00000000E+00  0.00000000E+00  0.00000000E+00
  0.00000000E+00  0.00000000E+00  0.00000000E+00
  0.00000000E+00  0.00000000E+00  0.00000000E+00
  0.00000000E+00  0.00000000E+00  0.00000000E+00
  0.00000000E+00  0.00000000E+00  0.00000000E+00
  0.00000000E+00  0.00000000E+00  0.00000000E+00
  0.00000000E+00  0.00000000E+00  0.00000000E+00
  0.00000000E+00  0.00000000E+00  0.00000000E+00
  0.00000000E+00  0.00000000E+00  0.00000000E+00
  0.00000000E+00  0.00000000E+00  0.00000000E+00
  0.00000000E+00  0.00000000E+00  0.00000000E+00
  0.00000000E+00  0.00000000E+00  0.00000000E+00
  0.00000000E+00  0.00000000E+00  0.00000000E+00
  0.00000000E+00  0.00000000E+00  0.00000000E+00
  0.00000000E+00  0.00000000E+00  0.00000000E+00
  0.00000000E+00  0.00000000E+00  0.00000000E+00
  0.00000000E+00  0.00000000E+00  0.00000000E+00
  0.00000000E+00  0.00000000E+00  0.00000000E+00
  0.00000000E+00  0.00000000E+00  0.00000000E+00
  0.00000000E+00  0.00000000E+00  0.00000000E+00
  0.00000000E+00  0.00000000E+00  0.00000000E+00
  0.00000000E+00  0.00000000E+00  0.00000000E+00
  0.00000000E+00  0.00000000E+00  0.00000000E+00
  0.00000000E+00  0.00000000E+00  0.00000000E+00
  0.00000000E+00  0.00000000E+00  0.00000000E+00
  0.00000000E+00  0.00000000E+00  0.00000000E+00
  0.00000000E+00  0.00000000E+00  0.00000000E+00
  0.00000000E+00  0.00000000E+00  0.00000000E+00
  0.00000000E+00  0.00000000E+00  0.00000000E+00
  0.00000000E+00  0.00000000E+00  0.00000000E+00
  0.00000000E+00  0.00000000E+00  0.00000000E+00
  0.00000000E+00  0.00000000E+00  0.00000000E+00
  0.00000000E+00  0.00000000E+00  0.00000000E+00
  0.00000000E+00  0.00000000E+00  0.00000000E+00
  0.00000000E+00  0.00000000E+00  0.00000000E+00
  0.00000000E+00  0.00000000E+00  0.00000000E+00
  0.00000000E+00  0.00000000E+00  0.00000000E+00
  0.00000000E+00  0.00000000E+00  0.00000000E+00
  0.00000000E+00  0.00000000E+00  0.00000000E+00
  0.00000000E+00  0.00000000E+00  0.00000000E+00
  0.00000000E+00  0.00000000E+00  0.00000000E+00
  0.00000000E+00  0.00000000E+00  0.00000000E+00
  0.00000000E+00  0.00000000E+00  0.00000000E+00
  0.00000000E+00  0.00000000E+00  0.00000000E+00
  0.00000000E+00  0.00000000E+00  0.00000000E+00
  0.00000000E+00  0.00000000E+00  0.00000000E+00
  0.00000000E+00  0.00000000E+00  0.00000000E+00
  0.00000000E+00  0.00000000E+00  0.00000000E+00
  0.00000000E+00  0.00000000E+00  0.00000000E+00
  0.00000000E+00  0.00000000E+00  0.00000000E+00
  0.00000000E+00  0.00000000E+00  0.00000000E+00
  0.00000000E+00  0.00000000E+00  0.00000000E+00
  0.00000000E+00  0.00000000E+00  0.00000000E+00
  0.00000000E+00  0.00000000E+00  0.00000000E+00
  0.00000000E+00  0.00000000E+00  0.00000000E+00
  0.00000000E+00  0.00000000E+00  0.00000000E+00
  0.00000000E+00  0.00000000E+00  0.00000000E+00
  0.00000000E+00  0.00000000E+00  0.00000000E+00
  0.00000000E+00  0.00000000E+00  0.00000000E+00
  0.00000000E+00  0.00000000E+00  0.00000000E+00
  0.00000000E+00  0.00000000E+00  0.00000000E+00
  0.00000000E+00  0.00000000E+00  0.00000000E+00
  0.00000000E+00  0.00000000E+00  0.00000000E+00
  0.00000000E+00  0.00000000E+00  0.00000000E+00
  0.00000000E+00  0.00000000E+00  0.00000000E+00
  0.00000000E+00  0.00000000E+00  0.00000000E+00
  0.00000000E+00  0.00000000E+00  0.00000000E+00
  0.00000000E+00  0.00000000E+00  0.00000000E+00
  0.00000000E+00  0.00000000E+00  0.00000000E+00
  0.00000000E+00  0.00000000E+00  0.00000000E+00
  0.00000000E+00  0.00000000E+00  0.00000000E+00
  0.00000000E+00  0.00000000E+00  0.00000000E+00
  0.00000000E+00  0.00000000E+00  0.00000000E+00
  0.00000000E+00  0.00000000E+00  0.00000000E+00
  0.00000000E+00  0.00000000E+00  0.00000000E+00
  0.00000000E+00  0.00000000E+00  0.00000000E+00
  0.00000000E+00  0.00000000E+00  0.00000000E+00
  0.00000000E+00  0.00000000E+00  0.00000000E+00
  0.00000000E+00  0.00000000E+00  0.00000000E+00
  0.00000000E+00  0.00000000E+00  0.00000000E+00
  0.00000000E+00  0.00000000E+00  0.00000000E+00
  0.00000000E+00  0.00000000E+00  0.00000000E+00
  0.00000000E+00  0.00000000E+00  0.00000000E+00
  0.00000000E+00  0.00000000E+00  0.00000000E+00
  0.00000000E+00  0.00000000E+00  0.00000000E+00
  0.00000000E+00  0.00000000E+00  0.00000000E+00
  0.00000000E+00  0.00000000E+00  0.00000000E+00
  0.00000000E+00  0.00000000E+00  0.00000000E+00
  0.00000000E+00  0.00000000E+00  0.00000000E+00
  0.00000000E+00  0.00000000E+00  0.00000000E+00
  0.00000000E+00  0.00000000E+00  0.00000000E+00
