PREC = Accurate
ENCUT = 500
ISTART = 0
ISMEAR = 1
SIGMA = 0.1
NSW = 400
NELMIN = 5
NELM = 100
IBRION = 1
POTIM = 0.5
ISIF = 3
ISYM = 2
EDIFF = 0.00001
EDIFFG = -0.0005
LREAL = .FALSE.
LWAVE = .FALSE.
LCHARG = .FALSE.
