# FCC CoNiCrFeMn alloy with MEAM potential

units           metal
dimension       3
boundary        p p p
atom_style      atomic

# Define FCC lattice and simulation box
lattice         fcc 3.59
region          box block 0 3 0 5 0 5
create_box      5 box

# Create FCC atoms (all initially type 1)
create_atoms    1 box

# Assign random element types (1–5) to atoms for equiatomic mixture
set             type 1 type/ratio 2 0.8 ${seed}
set             type 2 type/ratio 3 0.75 ${seed}
set             type 3 type/ratio 4 0.6667 ${seed}
set             type 4 type/ratio 5 0.5 ${seed}

# Neighbor list
neighbor        2.0 bin
neigh_modify    delay 0 every 1 check yes

# Define MEAM potential
pair_style      meam
pair_coeff      * * library.meam Co Ni Cr Fe Mn CoNiCrFeMn.meam Co Ni Cr Fe Mn

thermo 10
variable E equal pe

shell mkdir samples/${seed}
write_data samples/${seed}/unrelaxed.dat

# Relaxation
min_style       cg
fix 1 all box/relax iso 0.0 vmax 0.001
minimize        1e-10 1e-10 1000 10000

print "${E}" file samples/${seed}/energy.txt

