#generated using str2pos                
    1.000000000000000     
    12.7968897900654071   -0.0026638353361911   -0.0017447231358547
    -0.0026643421042542   12.7963742321419787    0.0001987768987684
    -0.0017442970001186    0.0001986045316808   12.7997396955972764
   Ta   W 
    32    96
Direct
  0.1259873473868770  0.1242785658458455  0.1261324274006685
  0.6253515615501836  0.1256213703331525  0.1266415518548737
  0.3748288163435781  0.3752845059386610  0.1248870316697589
  0.8744401996010382  0.3741053665829068  0.1275676548098200
  0.4987237353769380  0.7492793114420444  0.2504484900444499
  0.6266518377774627  0.8753781388799676  0.1253660101544274
  0.8744980869489011  0.8760701026368507  0.1259904911592846
  0.1252851123330576  0.1246793255931040  0.3743916780692149
  0.4993349431769211  0.4991319859939462  0.5001496150549870
  0.6256022307977329  0.3734435850161960  0.3744173586543653
  0.8749640849383112  0.3746855469884676  0.3749271249681821
  0.5006449422923344  0.7509119828449771  0.4990061552492746
  0.7486473457143563  0.7522629182939435  0.5002667845624095
  0.8765381014475839  0.6240863391590836  0.3750202605355826
  0.1252385032131757  0.8749111466139801  0.3746193608661852
  0.1252809322398393  0.1272473384120608  0.6228875350811228
  0.7495395538313845  0.2499265233782252  0.7497133256105095
  0.1249626976444961  0.3748948438948069  0.6246567269559848
  0.5006125933119091  0.4990334280074300  0.7507940622123008
  0.2490037377492240  0.7507127983295947  0.7513013491945848
  0.5002393474712767  0.7503970071207028  0.7508384827248460
  0.3714324885334160  0.6236545904719983  0.6242504338054321
  0.8764920279359113  0.6241031268606617  0.6251211623925458
  0.2504169697467396 -0.0006142011540109  0.7509501793976097
  0.5000809594854688  0.0003921998099308  0.7498858613116132
  0.7502707773100261  0.0006937107818284  0.7493661345104372
 -0.0010186963267642 -0.0007828855257958  0.7504305352581281
  0.0004606002676466  0.2502467267034319 -0.0014819498742954
  0.7491432515997265  0.5008654873720115 -0.0008588889736400
  0.0009239776201897  0.5008695558560889 -0.0009701429373651
  0.0013754695396657  0.7490088364894329 -0.0007529367694337
  0.4980887340064776  0.0003669214769003 -0.0011245050156107
  0.2512624325988299  0.2510269586691077  0.2504882620615421
  0.4991577793624006  0.2493447349328040  0.2509023531328000
  0.3744140869080493  0.1264081880740980  0.1260967186607029
  0.7495642041819686  0.2482549259742280  0.2505242921947392
  0.0003470267367519  0.2498416268599587  0.2498559582719763
  0.8746925635156572  0.1243039002072011  0.1262703959228772
  0.2497230397185781  0.5008354548282469  0.2501353737333363
  0.1269799212804959  0.3751425180631692  0.1261270397115667
  0.4991012039692810  0.5012970281972386  0.2495751140292443
  0.7486403393499869  0.5010263745672324  0.2478296485657634
  0.6235500745277071  0.3744459896775031  0.1258247851436948
  0.0031298823371870  0.5007004214261285  0.2491638032340799
  0.2509579290501930  0.7488699432236950  0.2488403458886964
  0.1271378807753324  0.6250266923308729  0.1263750943123985
  0.3740128961136097  0.6237286938550778  0.1249427388931853
  0.7490809777688412  0.7495767033007239  0.2507171975774992
  0.6241112141725298  0.6252657329221417  0.1245104741606291
  0.0016108126330886  0.7492427202749616  0.2489498270313855
  0.8748397332097680  0.6259872056615116  0.1271698135475232
  0.2520038202036243 -0.0009598376592277  0.2492337883427392
  0.1253441373693936  0.8752776669675126  0.1263926143948842
  0.4987642565465646 -0.0000275847285901  0.2515468258517820
  0.3737142436418425  0.8747653390023868  0.1258842243411636
  0.7506191493848429  0.0009167711224670  0.2527518442358225
 -0.0011589352922703 -0.0002908974871949  0.2502775970288138
  0.2525748851053133  0.2508846851571513  0.4991678045191576
  0.4995464822928167  0.2488495051797604  0.5007013984699302
  0.3754222657307684  0.1250526258311776  0.3749638325679108
  0.7493153392193491  0.2477854269746569  0.5016611149295114
  0.6247531242030818  0.1256471091224162  0.3748625547086291
 -0.0012633044243944  0.2500569523114514  0.4998328623388762
  0.8749499426285028  0.1251562342268803  0.3749758798000660
  0.2498916876845775  0.4997049583013832  0.4980019211592233
  0.1251176288732898  0.3752901833773439  0.3755494773516720
  0.3745270168164836  0.3735173419523435  0.3735487510308162
  0.7487385147781384  0.4997486189606635  0.5014137162576451
  0.0020984274355351  0.4998625522020616  0.4999422202008384
  0.2497015045450561  0.7500654592417670  0.4996194326917385
  0.1248862871820909  0.6251614216420524  0.3742525334415484
  0.3722209297178001  0.6241367037005582  0.3735171739204481
  0.6263301509287040  0.6231739786123900  0.3728235127049086
  0.0005065766022292  0.7507455489429159  0.5006213346997100
  0.2523547151894152 -0.0003162128089339  0.5002004014828280
  0.5003005394533062  0.0006857398880348  0.5001708899330588
  0.3730942612617992  0.8769132871155215  0.3743540998971230
  0.7493756892605609  0.0001295472859833  0.5002904391719446
  0.6253993348359675  0.8779818756171083  0.3740810152051879
 -0.0024192333104494 -0.0005981360335229  0.5007086101620909
  0.8763781692850459  0.8761311392929277  0.3741565780715779
  0.2515642538870937  0.2502959455498282  0.7511980120401495
  0.5003036588716856  0.2504481663508641  0.7498896246677900
  0.3753209245457925  0.1265902020971270  0.6230477981927552
  0.6240793867982339  0.1259377182841489  0.6223023510524986
 -0.0015511402624179  0.2500080316358366  0.7512189899691700
  0.8754381098662996  0.1256577940774078  0.6224488690841722
  0.2498099482790973  0.4998882928574683  0.7514520827174511
  0.3731721753803278  0.3731071842516716  0.6250498511416002
  0.7494299960108126  0.4989590030222119  0.7514358019017051
  0.6254522175914092  0.3733410613056518  0.6241894055750766
  0.0001347009302316  0.5000002750682728  0.7509128158120764
  0.8763181605337589  0.3755937854115936  0.6237926474654738
  0.1235195988357268  0.6234398283783931  0.6239859185244635
  0.7496557478176386  0.7506537794173991  0.7503683107886769
  0.6275945751509958  0.6240015505057265  0.6263070269935695
  0.0007125938129380  0.7504337318955501  0.7509573373855998
  0.1238623850581577  0.8743672414878667  0.6223679536820772
  0.3741181358309220  0.8762715117918243  0.6224002502520262
  0.6258968180982434  0.8767811063881733  0.6240956486134486
  0.8756689123624140  0.8741588506529199  0.6242879110609031
  0.2503628112396965  0.2502214531108412 -0.0011186560570305
  0.1258260131726478  0.1258534571792039  0.8759867902776945
  0.4993955427246021  0.2500429300808502 -0.0011251103292365
  0.3741700636043510  0.1276915235043986  0.8756399777886246
  0.7497243599847860  0.2505460420478673 -0.0018056534561440
  0.6244624980549727  0.1269673354316831  0.8765938405585766
  0.8750626851812895  0.1249481026168657  0.8760992042940100
  0.2497989433308815  0.5007089518520391  0.0002007893034703
  0.1269592914237548  0.3753674997889545  0.8728980013680522
  0.5005103986148064  0.5004061455982654 -0.0007201162540565
  0.3743504556371610  0.3741333182040792  0.8764098999610079
  0.6236069367285295  0.3749186532875150  0.8754426660855805
  0.8748618062273794  0.3748497964938245  0.8735886488571768
  0.2498072911319052  0.7497447875855445  0.0003165584714103
  0.1258647877780389  0.6240923967927715  0.8747847918994068
  0.4991064151121598  0.7495275415805068  0.0000457915554137
  0.3742383396611219  0.6234851203248326  0.8780897686092459
  0.7503711251721986  0.7483960900294020 -0.0013125853230064
  0.6254390394612906  0.6251745159012426  0.8765742241052316
  0.8744971191302665  0.6257904622999668  0.8722817419514176
  0.2509289087349615 -0.0008312839000613 -0.0000973562374663
  0.1247902457210908  0.8744814131457757  0.8767388136635629
  0.3740344556455313  0.8745116891809389  0.8780174396370251
  0.7502506152697999  0.0006123946510887 -0.0017301885563473
  0.6264530436621131  0.8733789925178451  0.8769041747393763
  0.0004930589639211 -0.0002625649671558 -0.0012994869802611
  0.8746887130070559  0.8743881584252036  0.8762443782230418
 
  0.00000000E+00  0.00000000E+00  0.00000000E+00
  0.00000000E+00  0.00000000E+00  0.00000000E+00
  0.00000000E+00  0.00000000E+00  0.00000000E+00
  0.00000000E+00  0.00000000E+00  0.00000000E+00
  0.00000000E+00  0.00000000E+00  0.00000000E+00
  0.00000000E+00  0.00000000E+00  0.00000000E+00
  0.00000000E+00  0.00000000E+00  0.00000000E+00
  0.00000000E+00  0.00000000E+00  0.00000000E+00
  0.00000000E+00  0.00000000E+00  0.00000000E+00
  0.00000000E+00  0.00000000E+00  0.00000000E+00
  0.00000000E+00  0.00000000E+00  0.00000000E+00
  0.00000000E+00  0.00000000E+00  0.00000000E+00
  0.00000000E+00  0.00000000E+00  0.00000000E+00
  0.00000000E+00  0.00000000E+00  0.00000000E+00
  0.00000000E+00  0.00000000E+00  0.00000000E+00
  0.00000000E+00  0.00000000E+00  0.00000000E+00
  0.00000000E+00  0.00000000E+00  0.00000000E+00
  0.00000000E+00  0.00000000E+00  0.00000000E+00
  0.00000000E+00  0.00000000E+00  0.00000000E+00
  0.00000000E+00  0.00000000E+00  0.00000000E+00
  0.00000000E+00  0.00000000E+00  0.00000000E+00
  0.00000000E+00  0.00000000E+00  0.00000000E+00
  0.00000000E+00  0.00000000E+00  0.00000000E+00
  0.00000000E+00  0.00000000E+00  0.00000000E+00
  0.00000000E+00  0.00000000E+00  0.00000000E+00
  0.00000000E+00  0.00000000E+00  0.00000000E+00
  0.00000000E+00  0.00000000E+00  0.00000000E+00
  0.00000000E+00  0.00000000E+00  0.00000000E+00
  0.00000000E+00  0.00000000E+00  0.00000000E+00
  0.00000000E+00  0.00000000E+00  0.00000000E+00
  0.00000000E+00  0.00000000E+00  0.00000000E+00
  0.00000000E+00  0.00000000E+00  0.00000000E+00
  0.00000000E+00  0.00000000E+00  0.00000000E+00
  0.00000000E+00  0.00000000E+00  0.00000000E+00
  0.00000000E+00  0.00000000E+00  0.00000000E+00
  0.00000000E+00  0.00000000E+00  0.00000000E+00
  0.00000000E+00  0.00000000E+00  0.00000000E+00
  0.00000000E+00  0.00000000E+00  0.00000000E+00
  0.00000000E+00  0.00000000E+00  0.00000000E+00
  0.00000000E+00  0.00000000E+00  0.00000000E+00
  0.00000000E+00  0.00000000E+00  0.00000000E+00
  0.00000000E+00  0.00000000E+00  0.00000000E+00
  0.00000000E+00  0.00000000E+00  0.00000000E+00
  0.00000000E+00  0.00000000E+00  0.00000000E+00
  0.00000000E+00  0.00000000E+00  0.00000000E+00
  0.00000000E+00  0.00000000E+00  0.00000000E+00
  0.00000000E+00  0.00000000E+00  0.00000000E+00
  0.00000000E+00  0.00000000E+00  0.00000000E+00
  0.00000000E+00  0.00000000E+00  0.00000000E+00
  0.00000000E+00  0.00000000E+00  0.00000000E+00
  0.00000000E+00  0.00000000E+00  0.00000000E+00
  0.00000000E+00  0.00000000E+00  0.00000000E+00
  0.00000000E+00  0.00000000E+00  0.00000000E+00
  0.00000000E+00  0.00000000E+00  0.00000000E+00
  0.00000000E+00  0.00000000E+00  0.00000000E+00
  0.00000000E+00  0.00000000E+00  0.00000000E+00
  0.00000000E+00  0.00000000E+00  0.00000000E+00
  0.00000000E+00  0.00000000E+00  0.00000000E+00
  0.00000000E+00  0.00000000E+00  0.00000000E+00
  0.00000000E+00  0.00000000E+00  0.00000000E+00
  0.00000000E+00  0.00000000E+00  0.00000000E+00
  0.00000000E+00  0.00000000E+00  0.00000000E+00
  0.00000000E+00  0.00000000E+00  0.00000000E+00
  0.00000000E+00  0.00000000E+00  0.00000000E+00
  0.00000000E+00  0.00000000E+00  0.00000000E+00
  0.00000000E+00  0.00000000E+00  0.00000000E+00
  0.00000000E+00  0.00000000E+00  0.00000000E+00
  0.00000000E+00  0.00000000E+00  0.00000000E+00
  0.00000000E+00  0.00000000E+00  0.00000000E+00
  0.00000000E+00  0.00000000E+00  0.00000000E+00
  0.00000000E+00  0.00000000E+00  0.00000000E+00
  0.00000000E+00  0.00000000E+00  0.00000000E+00
  0.00000000E+00  0.00000000E+00  0.00000000E+00
  0.00000000E+00  0.00000000E+00  0.00000000E+00
  0.00000000E+00  0.00000000E+00  0.00000000E+00
  0.00000000E+00  0.00000000E+00  0.00000000E+00
  0.00000000E+00  0.00000000E+00  0.00000000E+00
  0.00000000E+00  0.00000000E+00  0.00000000E+00
  0.00000000E+00  0.00000000E+00  0.00000000E+00
  0.00000000E+00  0.00000000E+00  0.00000000E+00
  0.00000000E+00  0.00000000E+00  0.00000000E+00
  0.00000000E+00  0.00000000E+00  0.00000000E+00
  0.00000000E+00  0.00000000E+00  0.00000000E+00
  0.00000000E+00  0.00000000E+00  0.00000000E+00
  0.00000000E+00  0.00000000E+00  0.00000000E+00
  0.00000000E+00  0.00000000E+00  0.00000000E+00
  0.00000000E+00  0.00000000E+00  0.00000000E+00
  0.00000000E+00  0.00000000E+00  0.00000000E+00
  0.00000000E+00  0.00000000E+00  0.00000000E+00
  0.00000000E+00  0.00000000E+00  0.00000000E+00
  0.00000000E+00  0.00000000E+00  0.00000000E+00
  0.00000000E+00  0.00000000E+00  0.00000000E+00
  0.00000000E+00  0.00000000E+00  0.00000000E+00
  0.00000000E+00  0.00000000E+00  0.00000000E+00
  0.00000000E+00  0.00000000E+00  0.00000000E+00
  0.00000000E+00  0.00000000E+00  0.00000000E+00
  0.00000000E+00  0.00000000E+00  0.00000000E+00
  0.00000000E+00  0.00000000E+00  0.00000000E+00
  0.00000000E+00  0.00000000E+00  0.00000000E+00
  0.00000000E+00  0.00000000E+00  0.00000000E+00
  0.00000000E+00  0.00000000E+00  0.00000000E+00
  0.00000000E+00  0.00000000E+00  0.00000000E+00
  0.00000000E+00  0.00000000E+00  0.00000000E+00
  0.00000000E+00  0.00000000E+00  0.00000000E+00
  0.00000000E+00  0.00000000E+00  0.00000000E+00
  0.00000000E+00  0.00000000E+00  0.00000000E+00
  0.00000000E+00  0.00000000E+00  0.00000000E+00
  0.00000000E+00  0.00000000E+00  0.00000000E+00
  0.00000000E+00  0.00000000E+00  0.00000000E+00
  0.00000000E+00  0.00000000E+00  0.00000000E+00
  0.00000000E+00  0.00000000E+00  0.00000000E+00
  0.00000000E+00  0.00000000E+00  0.00000000E+00
  0.00000000E+00  0.00000000E+00  0.00000000E+00
  0.00000000E+00  0.00000000E+00  0.00000000E+00
  0.00000000E+00  0.00000000E+00  0.00000000E+00
  0.00000000E+00  0.00000000E+00  0.00000000E+00
  0.00000000E+00  0.00000000E+00  0.00000000E+00
  0.00000000E+00  0.00000000E+00  0.00000000E+00
  0.00000000E+00  0.00000000E+00  0.00000000E+00
  0.00000000E+00  0.00000000E+00  0.00000000E+00
  0.00000000E+00  0.00000000E+00  0.00000000E+00
  0.00000000E+00  0.00000000E+00  0.00000000E+00
  0.00000000E+00  0.00000000E+00  0.00000000E+00
  0.00000000E+00  0.00000000E+00  0.00000000E+00
  0.00000000E+00  0.00000000E+00  0.00000000E+00
  0.00000000E+00  0.00000000E+00  0.00000000E+00
  0.00000000E+00  0.00000000E+00  0.00000000E+00
  0.00000000E+00  0.00000000E+00  0.00000000E+00
