#generated using str2pos                
    1.000000000000000     
    12.8217929751947004   -0.0001996644628982   -0.0049110793545218
    -0.0001997634539802   12.8225752736113456    0.0023489159618940
    -0.0049127476263419    0.0023497045428948   12.8175509471307905
   Ta   W 
    38    90
Direct
  0.5004632321618874  0.2516691836353318  0.2473055572550695
  0.8771735247463655  0.1251248967116579  0.1248995117822929
  0.5003120166045041  0.5012335540997533  0.2492393689985669
  0.1248498011727049  0.6249448158464597  0.1250476744952076
  0.8759946600503464  0.6250098613328441  0.1251208283854579
  0.2475981895432976 -0.0006592692715482  0.2477242248625758
  0.7519023888240031 -0.0013098895853285  0.2517771299228169
  0.6244923904392027  0.8736970238666681  0.1243801341874781
  0.3745670425214953  0.1241247673767890  0.3771366843027075
  0.6242963343332840  0.1254692262159257  0.3759146558453131
  0.2492613235345739  0.5013468062935181  0.5011532926795341
  0.4999964499329567  0.5014966884599658  0.5005393870755703
  0.3721291379385115  0.3736821379706216  0.3752633834783940
  0.7476602968912532  0.5011260225076585  0.5010765029470431
  0.8766975359004170  0.3749859859838151  0.3743529968518848
  0.8761443512008458  0.6257606247638191  0.3740588339507669
  0.3748182663247684  0.8740539317760239  0.3756068154970864
  0.7522989338698332 -0.0006379012808162  0.4997515240848398
  0.1245770046844720  0.1252112983396820  0.6236445456477033
  0.3748879002067488  0.1256281942822021  0.6239839235058346
  0.2501908956025108  0.5012552032168524  0.7490786650044789
  0.7503333623108933  0.5004584980543784  0.7500828169839797
  0.8764717792655691  0.3738168739734115  0.6244223741214474
  0.2499263053081928 -0.0006645947238021  0.7524870116749383
  0.1241126533046863  0.8740107642775501  0.6239124912058841
  0.7504612023895250 -0.0006312375306350  0.7472407178755098
  0.6235232355012638  0.8729182572894568  0.6246209979561436
  0.2505683149856355  0.2491387762700141  0.0009856633906690
  0.4988904158521651  0.2513488023575562  0.0001622423928926
  0.7493552298671636  0.2532658067042965  0.0007078781693515
  0.6251201506429614  0.1242565277534631  0.8736787313225604
  0.8763736452426900  0.1244224231866086  0.8754540274986604
  0.1233684083631788  0.3758958788755559  0.8755579771474591
  0.4990762278819028  0.4998101513640685  0.0010517938536257
  0.6249208988660292  0.6266660553983411  0.8751733285214323
  0.2493211988616346  0.0004546260048483  0.0010923295340943
  0.3761258576313540  0.8724489485727565  0.8753691382422111
  0.8764074613655882  0.8739357880630715  0.8757193123533117
  0.2479361692573612  0.2499184769158277  0.2485372272761912
  0.1225491207342183  0.1256554170928703  0.1262688358038547
  0.3747941472336234  0.1240308501554962  0.1260920046880887
  0.7502357293716262  0.2506508615465574  0.2492506898792309
  0.6258926245527684  0.1228591522725633  0.1249403373120248
  0.0015987784928419  0.2497541310127276  0.2503373745344967
  0.2497719774019702  0.5004488307016107  0.2504213222976497
  0.1236665695908531  0.3764863750000794  0.1257221330298356
  0.3717547485844407  0.3769657347252600  0.1257658227732492
  0.7484001104305072  0.4999235125280543  0.2493451131406433
  0.6277493844049101  0.3770154502951003  0.1254900680584265
  0.0016536791997511  0.4987499712693309  0.2495331959985811
  0.8763254613210900  0.3763187094479765  0.1259286068324391
  0.2498593376848938  0.7498349889273751  0.2501394347383395
  0.4996434627043991  0.7482242040327292  0.2503048032498554
  0.3726996162903257  0.6265790707206889  0.1248026376693091
  0.7496073722665819  0.7504879020051362  0.2506021682818479
  0.6265601770692292  0.6273184494704169  0.1247809151153203
  0.0011532693348132  0.7520816913577100  0.2508425324957175
  0.1235827259615417  0.8729933414395976  0.1253572133662019
  0.4997687737021630 -0.0006102543981507  0.2483518140761295
  0.3763482798024033  0.8729703365055337  0.1251601007424209
  0.0010511912341553 -0.0004317944260308  0.2507909949057977
  0.8753809197329118  0.8739426904591023  0.1241239465266596
  0.2478087509670383  0.2521545302003288  0.4998831665951604
  0.1241220659063888  0.1254498362549311  0.3757189632565115
  0.5012229106712054  0.2519119459147744  0.5017873452047595
  0.7502046493018791  0.2491680680279728  0.5004470689754283
  0.0007464090602682  0.2489094763976923  0.4987591688064970
  0.8768149939035615  0.1261149573022554  0.3747001953103670
  0.1237392867025980  0.3746339277556767  0.3740117360472112
  0.6269873341864860  0.3740949815427129  0.3752844924980498
  0.0023848307512518  0.5009505386156087  0.5005663869700485
  0.2495144774490549  0.7478640803808194  0.4997799761935200
  0.1240468018759984  0.6257903417741730  0.3742124941493026
  0.4995779819397776  0.7482504867251777  0.5000325627445315
  0.3737907110181122  0.6277505283795858  0.3743433711416693
  0.7502872258389026  0.7500294449508439  0.4996387681825006
  0.6260095413834437  0.6272076264704293  0.3743927825124611
  0.0003378570103352  0.7501898219677313  0.5000244000053122
  0.2482163816255359 -0.0015103437817659  0.4988723465804197
  0.1244008829121423  0.8742238064667204  0.3755466933967045
  0.5012413952638989 -0.0016074664710850  0.5008555597107475
  0.6237643638589816  0.8735957720787358  0.3746456163444337
 -0.0016925331561969 -0.0006036093416131  0.4979376860364133
  0.8771043394329949  0.8731573299867391  0.3749145792726278
  0.2506838851116978  0.2514366775900308  0.7511441036002681
  0.5000128024462093  0.2515635166714885  0.7501460242914765
  0.7494400095804724  0.2511997394926525  0.7495009543777292
  0.6233000189788885  0.1256606859042659  0.6247683420533543
  0.0001381140790117  0.2504616440824640  0.7495466046118002
  0.8770784212799563  0.1263147002332902  0.6249858490220024
  0.1234850702828399  0.3739759957265326  0.6251416968747955
  0.4990282096528302  0.4995502143476256  0.7498806838102706
  0.3756121757140975  0.3733470659096917  0.6259337699395556
  0.6247051698257824  0.3734074411290476  0.6257766500393397
  0.0001243993431476  0.5016945749744283  0.7503371129197262
  0.2497135247158514  0.7479034708829972  0.7500463003714954
  0.1239780521819755  0.6268010482867621  0.6250144841346867
  0.4989140032256300  0.7487749546045773  0.7491317884243515
  0.3750108281324345  0.6269985602916769  0.6259831143968283
  0.7510607489778637  0.7487191154990959  0.7491846728494302
  0.6241441922417726  0.6271730480021548  0.6260399764372472
  0.0002944781734449  0.7480615000349267  0.7496658199608495
  0.8766945172623988  0.6258733109662198  0.6248237334088305
  0.4999162417996094 -0.0003980164850088  0.7502743814888083
  0.3753782696029028  0.8744214900107595  0.6245145321406744
  0.0002809613455192 -0.0008489994352409  0.7497266644752894
  0.8765273593267709  0.8731569851884615  0.6250103106435400
  0.1227253443970616  0.1260847298765329  0.8742039261854989
  0.3766797106595495  0.1242117429437877  0.8730561305380078
  0.0010259537620832  0.2509448191033997  0.0010205125898304
  0.2506875456377938  0.5000912035180517 -0.0002695902555269
  0.3738089974032696  0.3760629247886584  0.8735937755997825
  0.7500701969509707  0.4992986417552432 -0.0002421250153218
  0.6250964062496268  0.3759905952768292  0.8733275774465497
 -0.0006507330269937  0.5000729343033758 -0.0007750230092429
  0.8768990968873279  0.3755759127388296  0.8747295802400022
  0.2496672281196555  0.7498601386168738  0.0003365326924159
  0.1242783397981932  0.6251864600575355  0.8758761440165579
  0.4989703536816977  0.7489168921035908  0.0006806129338608
  0.3747331576126601  0.6266558041021492  0.8751257442411493
  0.7505736158989258  0.7493558574720628  0.0001711178197798
  0.0010844282009399  0.7502314828505566 -0.0008603363096209
  0.8755943633077690  0.6263166700673011  0.8757848980900325
  0.1236811005209851  0.8730398742317951  0.8751445942249436
  0.4985370733170340  0.0002768792372100  0.0003480715891207
  0.7499243566935216 -0.0008109688081319  0.0009431498665162
  0.6248671312193046  0.8740381982000799  0.8758302388080202
  0.0029425710400653 -0.0013092054334716  0.0013777717035113
 
  0.00000000E+00  0.00000000E+00  0.00000000E+00
  0.00000000E+00  0.00000000E+00  0.00000000E+00
  0.00000000E+00  0.00000000E+00  0.00000000E+00
  0.00000000E+00  0.00000000E+00  0.00000000E+00
  0.00000000E+00  0.00000000E+00  0.00000000E+00
  0.00000000E+00  0.00000000E+00  0.00000000E+00
  0.00000000E+00  0.00000000E+00  0.00000000E+00
  0.00000000E+00  0.00000000E+00  0.00000000E+00
  0.00000000E+00  0.00000000E+00  0.00000000E+00
  0.00000000E+00  0.00000000E+00  0.00000000E+00
  0.00000000E+00  0.00000000E+00  0.00000000E+00
  0.00000000E+00  0.00000000E+00  0.00000000E+00
  0.00000000E+00  0.00000000E+00  0.00000000E+00
  0.00000000E+00  0.00000000E+00  0.00000000E+00
  0.00000000E+00  0.00000000E+00  0.00000000E+00
  0.00000000E+00  0.00000000E+00  0.00000000E+00
  0.00000000E+00  0.00000000E+00  0.00000000E+00
  0.00000000E+00  0.00000000E+00  0.00000000E+00
  0.00000000E+00  0.00000000E+00  0.00000000E+00
  0.00000000E+00  0.00000000E+00  0.00000000E+00
  0.00000000E+00  0.00000000E+00  0.00000000E+00
  0.00000000E+00  0.00000000E+00  0.00000000E+00
  0.00000000E+00  0.00000000E+00  0.00000000E+00
  0.00000000E+00  0.00000000E+00  0.00000000E+00
  0.00000000E+00  0.00000000E+00  0.00000000E+00
  0.00000000E+00  0.00000000E+00  0.00000000E+00
  0.00000000E+00  0.00000000E+00  0.00000000E+00
  0.00000000E+00  0.00000000E+00  0.00000000E+00
  0.00000000E+00  0.00000000E+00  0.00000000E+00
  0.00000000E+00  0.00000000E+00  0.00000000E+00
  0.00000000E+00  0.00000000E+00  0.00000000E+00
  0.00000000E+00  0.00000000E+00  0.00000000E+00
  0.00000000E+00  0.00000000E+00  0.00000000E+00
  0.00000000E+00  0.00000000E+00  0.00000000E+00
  0.00000000E+00  0.00000000E+00  0.00000000E+00
  0.00000000E+00  0.00000000E+00  0.00000000E+00
  0.00000000E+00  0.00000000E+00  0.00000000E+00
  0.00000000E+00  0.00000000E+00  0.00000000E+00
  0.00000000E+00  0.00000000E+00  0.00000000E+00
  0.00000000E+00  0.00000000E+00  0.00000000E+00
  0.00000000E+00  0.00000000E+00  0.00000000E+00
  0.00000000E+00  0.00000000E+00  0.00000000E+00
  0.00000000E+00  0.00000000E+00  0.00000000E+00
  0.00000000E+00  0.00000000E+00  0.00000000E+00
  0.00000000E+00  0.00000000E+00  0.00000000E+00
  0.00000000E+00  0.00000000E+00  0.00000000E+00
  0.00000000E+00  0.00000000E+00  0.00000000E+00
  0.00000000E+00  0.00000000E+00  0.00000000E+00
  0.00000000E+00  0.00000000E+00  0.00000000E+00
  0.00000000E+00  0.00000000E+00  0.00000000E+00
  0.00000000E+00  0.00000000E+00  0.00000000E+00
  0.00000000E+00  0.00000000E+00  0.00000000E+00
  0.00000000E+00  0.00000000E+00  0.00000000E+00
  0.00000000E+00  0.00000000E+00  0.00000000E+00
  0.00000000E+00  0.00000000E+00  0.00000000E+00
  0.00000000E+00  0.00000000E+00  0.00000000E+00
  0.00000000E+00  0.00000000E+00  0.00000000E+00
  0.00000000E+00  0.00000000E+00  0.00000000E+00
  0.00000000E+00  0.00000000E+00  0.00000000E+00
  0.00000000E+00  0.00000000E+00  0.00000000E+00
  0.00000000E+00  0.00000000E+00  0.00000000E+00
  0.00000000E+00  0.00000000E+00  0.00000000E+00
  0.00000000E+00  0.00000000E+00  0.00000000E+00
  0.00000000E+00  0.00000000E+00  0.00000000E+00
  0.00000000E+00  0.00000000E+00  0.00000000E+00
  0.00000000E+00  0.00000000E+00  0.00000000E+00
  0.00000000E+00  0.00000000E+00  0.00000000E+00
  0.00000000E+00  0.00000000E+00  0.00000000E+00
  0.00000000E+00  0.00000000E+00  0.00000000E+00
  0.00000000E+00  0.00000000E+00  0.00000000E+00
  0.00000000E+00  0.00000000E+00  0.00000000E+00
  0.00000000E+00  0.00000000E+00  0.00000000E+00
  0.00000000E+00  0.00000000E+00  0.00000000E+00
  0.00000000E+00  0.00000000E+00  0.00000000E+00
  0.00000000E+00  0.00000000E+00  0.00000000E+00
  0.00000000E+00  0.00000000E+00  0.00000000E+00
  0.00000000E+00  0.00000000E+00  0.00000000E+00
  0.00000000E+00  0.00000000E+00  0.00000000E+00
  0.00000000E+00  0.00000000E+00  0.00000000E+00
  0.00000000E+00  0.00000000E+00  0.00000000E+00
  0.00000000E+00  0.00000000E+00  0.00000000E+00
  0.00000000E+00  0.00000000E+00  0.00000000E+00
  0.00000000E+00  0.00000000E+00  0.00000000E+00
  0.00000000E+00  0.00000000E+00  0.00000000E+00
  0.00000000E+00  0.00000000E+00  0.00000000E+00
  0.00000000E+00  0.00000000E+00  0.00000000E+00
  0.00000000E+00  0.00000000E+00  0.00000000E+00
  0.00000000E+00  0.00000000E+00  0.00000000E+00
  0.00000000E+00  0.00000000E+00  0.00000000E+00
  0.00000000E+00  0.00000000E+00  0.00000000E+00
  0.00000000E+00  0.00000000E+00  0.00000000E+00
  0.00000000E+00  0.00000000E+00  0.00000000E+00
  0.00000000E+00  0.00000000E+00  0.00000000E+00
  0.00000000E+00  0.00000000E+00  0.00000000E+00
  0.00000000E+00  0.00000000E+00  0.00000000E+00
  0.00000000E+00  0.00000000E+00  0.00000000E+00
  0.00000000E+00  0.00000000E+00  0.00000000E+00
  0.00000000E+00  0.00000000E+00  0.00000000E+00
  0.00000000E+00  0.00000000E+00  0.00000000E+00
  0.00000000E+00  0.00000000E+00  0.00000000E+00
  0.00000000E+00  0.00000000E+00  0.00000000E+00
  0.00000000E+00  0.00000000E+00  0.00000000E+00
  0.00000000E+00  0.00000000E+00  0.00000000E+00
  0.00000000E+00  0.00000000E+00  0.00000000E+00
  0.00000000E+00  0.00000000E+00  0.00000000E+00
  0.00000000E+00  0.00000000E+00  0.00000000E+00
  0.00000000E+00  0.00000000E+00  0.00000000E+00
  0.00000000E+00  0.00000000E+00  0.00000000E+00
  0.00000000E+00  0.00000000E+00  0.00000000E+00
  0.00000000E+00  0.00000000E+00  0.00000000E+00
  0.00000000E+00  0.00000000E+00  0.00000000E+00
  0.00000000E+00  0.00000000E+00  0.00000000E+00
  0.00000000E+00  0.00000000E+00  0.00000000E+00
  0.00000000E+00  0.00000000E+00  0.00000000E+00
  0.00000000E+00  0.00000000E+00  0.00000000E+00
  0.00000000E+00  0.00000000E+00  0.00000000E+00
  0.00000000E+00  0.00000000E+00  0.00000000E+00
  0.00000000E+00  0.00000000E+00  0.00000000E+00
  0.00000000E+00  0.00000000E+00  0.00000000E+00
  0.00000000E+00  0.00000000E+00  0.00000000E+00
  0.00000000E+00  0.00000000E+00  0.00000000E+00
  0.00000000E+00  0.00000000E+00  0.00000000E+00
  0.00000000E+00  0.00000000E+00  0.00000000E+00
  0.00000000E+00  0.00000000E+00  0.00000000E+00
  0.00000000E+00  0.00000000E+00  0.00000000E+00
  0.00000000E+00  0.00000000E+00  0.00000000E+00
  0.00000000E+00  0.00000000E+00  0.00000000E+00
  0.00000000E+00  0.00000000E+00  0.00000000E+00
