#BCC aalvarado POSCAR generator         
    12.76000000000000     
     1.0085388170381759    0.0000079249404438   -0.0002582026107649
     0.0000079040620602    1.0085586106926008   -0.0003116234230835
    -0.0002583480971025   -0.0003117836330951    1.0093755904622188
   Ta   W 
    51    77
Direct
  0.6267697898582733  0.6264488763559832  0.6276217512009966
  0.6263163372248174  0.6258148041653855  0.3720009829559511
  0.3720546945013530  0.6250094402844490  0.3727010973864803
  0.7543379078492974  0.5021254336919635  0.4994612142741003
  0.4998136284592046  0.7521065145868567  0.4999592896043790
  0.4986530943116516  0.2487701704080934  0.2500723624612707
  0.7533229849003183  0.2476754490595524  0.4990646829057845
  0.2488661819182041  0.2481767332089180  0.5002189406308322
  0.7522401055296987  0.2501433153064188  0.7523166539966313
  0.4973292078689955  0.2514224518225687  0.7516026372106679
  0.2525699480590741  0.2493513711661698  0.7487947134122258
  0.2525148924773886  0.5013385037723480  0.7491710059555786
  0.6255165185487833  0.8746979293996108  0.8732341302715172
  0.8771938801681010  0.3766155274613420  0.6285757531781397
  0.3720928691221442  0.8748764969330852  0.6271456872930714
  0.3749888523406800  0.8719148749590188  0.8728520603301883
  0.8752672477882888  0.6252858620612934  0.1265618059081852
  0.6254093681131210  0.6245566026477236  0.1256834768722340
  0.6279424262713118  0.3766226648088393  0.1258949587984035
  0.3736106941471694  0.8702998891091169  0.1245329517321414
  0.8760901525397830  0.1256077421639214  0.1236957732493865
  0.6294181336152924  0.1265904593484832  0.1229720395876407
  0.3724569914018770  0.1267274686373347  0.1253742172019998
  0.6244983920935155  0.1238377039227985  0.6270512198261294
  0.1248874127944977  0.3748412882688280  0.1255031288687504
  0.1237269587156048  0.3764472511018754  0.6259686636264370
  0.1253245039050588  0.6255042007331391  0.1257167603249974
  0.6280818086722333  0.1222310822914436  0.8749607733061546
  0.1220329460375988  0.1245432669668262  0.8752973474479910
  0.1231822036719561  0.3741395780751890  0.8765715473503550
  0.1246123761788841  0.6268217353281300  0.8750821285601273
  0.1228646764420942  0.8725654803913216  0.1256733592529951
  0.1249962233232356  0.8735435393922931  0.6253943421526490
  0.7513304068746249  0.7506198062604433 -0.0014404655420815
 -0.0006787261680792 -0.0001269528107600  0.4998167949738640
  0.7515140635336810 -0.0012284072818540  0.4989946947166766
  0.0005401411261594  0.5024711147171400  0.4979947783152920
 -0.0032058279115947  0.4996310227259100 -0.0003227260229474
  0.4987249600688101  0.4997744288703625 -0.0026426864784379
  0.5002640109097145 -0.0007916053757531  0.4982000922428158
  0.4995548947793210 -0.0002879755016958  0.0005464489389993
  0.7509291778023867 -0.0023445878177873  0.2521891265851350
  0.5008309317369232 -0.0008867993854198  0.2531041178196692
  0.0008487470986527  0.2480232589772139  0.4976797055498896
  0.4983907617809152  0.2530883693648862 -0.0023305588197623
  0.2479155766037355  0.0000897379392706  0.2531102223321393
  0.2477541752448793  0.0002041250492333 -0.0002371559449590
  0.4980271753006665  0.5016460705011700  0.5022438814710745
  0.6248227179447310  0.3761963753713685  0.3728379448201813
  0.3734497736845699  0.3769184764764221  0.3738454773417236
  0.6252798216402498  0.3767782995951786  0.6259346415113671
  0.3752515639220919  0.3763519191005371  0.6234610317324856
  0.3743368904869201  0.6269644927840431  0.6255316737384606
  0.7523594980336099  0.7500261830149120  0.7499972762942930
  0.7522412866371629  0.7523021953857617  0.5003728800857214
  0.7509829756058553  0.5019747225731952  0.7526554837376953
  0.4988281704082074  0.5005258123524318  0.7520592606183001
  0.5006422710933481  0.7481136960958739  0.7495727575419414
  0.7517256708466061  0.7525198167035234  0.2503668283104147
  0.7536483533960355  0.5001046243221915  0.2501169521702620
  0.4976954051483073  0.5006490571385722  0.2468258174671065
  0.5001526246068992  0.7518613490599673  0.2498866034876498
  0.7531828279121172  0.2497826304237643  0.2511528913002095
  0.4980793916550291  0.2483570814066663  0.5005506781325024
  0.2476660399805746  0.2493312419776766  0.2512112435892951
  0.2483742082738997  0.5001466285041078  0.2497283178364837
  0.2481552795191159  0.5010791890499787  0.5006862099006668
  0.2485066646097728  0.7494105839213595  0.2519109943117851
  0.2481403696489940  0.7495484084952191  0.4995644001121555
  0.2487601690773250  0.7479247682157996  0.7493922382180851
  0.8756067285944528  0.8754001630132868  0.8738524766720758
  0.8762829441321833  0.8730724574037748  0.6266648660634859
  0.8757238232919844  0.6278179726044877  0.6264834298742588
  0.8753206810828811  0.6260446057980205  0.8737112489186062
  0.6251644602035543  0.6258110910667425  0.8736450786559735
  0.6261119096056712  0.8739579561845997  0.6273031458894941
  0.8766416668455272  0.8721785454539093  0.3748853312563784
  0.8765301059804405  0.6271905398245498  0.3736599872537614
  0.6267233735282468  0.8721383546864001  0.3746739716023745
  0.8759781394793972  0.3758938903977144  0.3711926437922599
  0.8750009768225941  0.3754061959990717  0.8757930377056973
  0.6272314870855689  0.3772055645915767  0.8755907557930539
  0.3737889666086828  0.3770537228121003  0.8757015873527404
  0.3744779105126301  0.6266469556808503  0.8750100177837070
  0.3723176818002650  0.8724539077573664  0.3760990879181114
  0.8771710041323785  0.8751321041848017  0.1245370440046099
  0.6256559914736742  0.8726865370357910  0.1242379692282507
  0.8754125144979661  0.3741732833711419  0.1247204529646366
  0.3715487086560764  0.3766548866250160  0.1257323148404359
  0.3741654460743218  0.6251308532280118  0.1249839088116620
  0.8774760829671574  0.1246834745547516  0.3716232248683302
  0.6257675097979178  0.1265953720577330  0.3753293147457980
  0.3728575333814727  0.1258267729487130  0.3763407461728613
  0.8762936733723951  0.1227228333143561  0.6280476604731765
  0.3750800274833613  0.1223838252826555  0.6246014597116792
  0.1219843688377128  0.1264122146782101  0.1248511048960081
  0.1245499788956912  0.1241400938255809  0.3738052403998453
  0.1256280557382333  0.3761245717846804  0.3720090868790203
  0.1250953991279089  0.1220249230684670  0.6267528003448604
  0.1252068731951282  0.6263380005237318  0.3745345100486563
  0.1246946366273174  0.6272729760026705  0.6248601984103671
  0.8767442948723988  0.1235298080226036  0.8768600754143442
  0.3730149114618645  0.1231620906445318  0.8741271888675798
  0.1236418859141700  0.8732085469967775  0.3756883745741873
  0.1231735468817077  0.8743685461178825  0.8743221268081722
 -0.0007918369552924 -0.0010098863252014 -0.0008637200647938
 -0.0014893686796568 -0.0013793780870661  0.7500236502473309
 -0.0016909102274219  0.7510900117161259  0.7495122799907105
 -0.0021454213733139  0.7514882852432254 -0.0014332254784280
  0.7534431695062043 -0.0020346950241577  0.7488305145917703
  0.7525477422696625 -0.0024122745701567  0.0002293577564923
 -0.0003664972490092  0.7496690979494584  0.4998704821871328
 -0.0010413342044167  0.5031405980239915  0.7498814841773189
  0.7504262549260780  0.5002686138138024 -0.0022032449144566
  0.5006805045085714  0.7471573157300635 -0.0004233974667525
  0.4993671400720641  0.0001496470775825  0.7484388719606451
 -0.0001257721892889 -0.0002887353361812  0.2514933434761845
 -0.0006948185311061  0.7507379926167166  0.2527686667807426
 -0.0001842270739513  0.4995741060220986  0.2521266552167912
  0.0003900301991301  0.2499468322803128  0.2509690485583971
 -0.0009499679332936  0.2474900794973667  0.7501744794066589
 -0.0016141752938281  0.2497754272803383  0.0007390879859783
  0.7522156100358695  0.2520858899018401 -0.0014907683071763
  0.2503594083426356  0.2498101881796937  0.0000403791084321
  0.2525674901563883  0.5000237678722108 -0.0001910827754932
  0.2496903190979303  0.7488201667081452 -0.0009074563597223
  0.2491089756299668  0.0009844088118543  0.4990964411547670
  0.2482285342414204  0.0006660370441465  0.7497913542404672
 
  0.00000000E+00  0.00000000E+00  0.00000000E+00
  0.00000000E+00  0.00000000E+00  0.00000000E+00
  0.00000000E+00  0.00000000E+00  0.00000000E+00
  0.00000000E+00  0.00000000E+00  0.00000000E+00
  0.00000000E+00  0.00000000E+00  0.00000000E+00
  0.00000000E+00  0.00000000E+00  0.00000000E+00
  0.00000000E+00  0.00000000E+00  0.00000000E+00
  0.00000000E+00  0.00000000E+00  0.00000000E+00
  0.00000000E+00  0.00000000E+00  0.00000000E+00
  0.00000000E+00  0.00000000E+00  0.00000000E+00
  0.00000000E+00  0.00000000E+00  0.00000000E+00
  0.00000000E+00  0.00000000E+00  0.00000000E+00
  0.00000000E+00  0.00000000E+00  0.00000000E+00
  0.00000000E+00  0.00000000E+00  0.00000000E+00
  0.00000000E+00  0.00000000E+00  0.00000000E+00
  0.00000000E+00  0.00000000E+00  0.00000000E+00
  0.00000000E+00  0.00000000E+00  0.00000000E+00
  0.00000000E+00  0.00000000E+00  0.00000000E+00
  0.00000000E+00  0.00000000E+00  0.00000000E+00
  0.00000000E+00  0.00000000E+00  0.00000000E+00
  0.00000000E+00  0.00000000E+00  0.00000000E+00
  0.00000000E+00  0.00000000E+00  0.00000000E+00
  0.00000000E+00  0.00000000E+00  0.00000000E+00
  0.00000000E+00  0.00000000E+00  0.00000000E+00
  0.00000000E+00  0.00000000E+00  0.00000000E+00
  0.00000000E+00  0.00000000E+00  0.00000000E+00
  0.00000000E+00  0.00000000E+00  0.00000000E+00
  0.00000000E+00  0.00000000E+00  0.00000000E+00
  0.00000000E+00  0.00000000E+00  0.00000000E+00
  0.00000000E+00  0.00000000E+00  0.00000000E+00
  0.00000000E+00  0.00000000E+00  0.00000000E+00
  0.00000000E+00  0.00000000E+00  0.00000000E+00
  0.00000000E+00  0.00000000E+00  0.00000000E+00
  0.00000000E+00  0.00000000E+00  0.00000000E+00
  0.00000000E+00  0.00000000E+00  0.00000000E+00
  0.00000000E+00  0.00000000E+00  0.00000000E+00
  0.00000000E+00  0.00000000E+00  0.00000000E+00
  0.00000000E+00  0.00000000E+00  0.00000000E+00
  0.00000000E+00  0.00000000E+00  0.00000000E+00
  0.00000000E+00  0.00000000E+00  0.00000000E+00
  0.00000000E+00  0.00000000E+00  0.00000000E+00
  0.00000000E+00  0.00000000E+00  0.00000000E+00
  0.00000000E+00  0.00000000E+00  0.00000000E+00
  0.00000000E+00  0.00000000E+00  0.00000000E+00
  0.00000000E+00  0.00000000E+00  0.00000000E+00
  0.00000000E+00  0.00000000E+00  0.00000000E+00
  0.00000000E+00  0.00000000E+00  0.00000000E+00
  0.00000000E+00  0.00000000E+00  0.00000000E+00
  0.00000000E+00  0.00000000E+00  0.00000000E+00
  0.00000000E+00  0.00000000E+00  0.00000000E+00
  0.00000000E+00  0.00000000E+00  0.00000000E+00
  0.00000000E+00  0.00000000E+00  0.00000000E+00
  0.00000000E+00  0.00000000E+00  0.00000000E+00
  0.00000000E+00  0.00000000E+00  0.00000000E+00
  0.00000000E+00  0.00000000E+00  0.00000000E+00
  0.00000000E+00  0.00000000E+00  0.00000000E+00
  0.00000000E+00  0.00000000E+00  0.00000000E+00
  0.00000000E+00  0.00000000E+00  0.00000000E+00
  0.00000000E+00  0.00000000E+00  0.00000000E+00
  0.00000000E+00  0.00000000E+00  0.00000000E+00
  0.00000000E+00  0.00000000E+00  0.00000000E+00
  0.00000000E+00  0.00000000E+00  0.00000000E+00
  0.00000000E+00  0.00000000E+00  0.00000000E+00
  0.00000000E+00  0.00000000E+00  0.00000000E+00
  0.00000000E+00  0.00000000E+00  0.00000000E+00
  0.00000000E+00  0.00000000E+00  0.00000000E+00
  0.00000000E+00  0.00000000E+00  0.00000000E+00
  0.00000000E+00  0.00000000E+00  0.00000000E+00
  0.00000000E+00  0.00000000E+00  0.00000000E+00
  0.00000000E+00  0.00000000E+00  0.00000000E+00
  0.00000000E+00  0.00000000E+00  0.00000000E+00
  0.00000000E+00  0.00000000E+00  0.00000000E+00
  0.00000000E+00  0.00000000E+00  0.00000000E+00
  0.00000000E+00  0.00000000E+00  0.00000000E+00
  0.00000000E+00  0.00000000E+00  0.00000000E+00
  0.00000000E+00  0.00000000E+00  0.00000000E+00
  0.00000000E+00  0.00000000E+00  0.00000000E+00
  0.00000000E+00  0.00000000E+00  0.00000000E+00
  0.00000000E+00  0.00000000E+00  0.00000000E+00
  0.00000000E+00  0.00000000E+00  0.00000000E+00
  0.00000000E+00  0.00000000E+00  0.00000000E+00
  0.00000000E+00  0.00000000E+00  0.00000000E+00
  0.00000000E+00  0.00000000E+00  0.00000000E+00
  0.00000000E+00  0.00000000E+00  0.00000000E+00
  0.00000000E+00  0.00000000E+00  0.00000000E+00
  0.00000000E+00  0.00000000E+00  0.00000000E+00
  0.00000000E+00  0.00000000E+00  0.00000000E+00
  0.00000000E+00  0.00000000E+00  0.00000000E+00
  0.00000000E+00  0.00000000E+00  0.00000000E+00
  0.00000000E+00  0.00000000E+00  0.00000000E+00
  0.00000000E+00  0.00000000E+00  0.00000000E+00
  0.00000000E+00  0.00000000E+00  0.00000000E+00
  0.00000000E+00  0.00000000E+00  0.00000000E+00
  0.00000000E+00  0.00000000E+00  0.00000000E+00
  0.00000000E+00  0.00000000E+00  0.00000000E+00
  0.00000000E+00  0.00000000E+00  0.00000000E+00
  0.00000000E+00  0.00000000E+00  0.00000000E+00
  0.00000000E+00  0.00000000E+00  0.00000000E+00
  0.00000000E+00  0.00000000E+00  0.00000000E+00
  0.00000000E+00  0.00000000E+00  0.00000000E+00
  0.00000000E+00  0.00000000E+00  0.00000000E+00
  0.00000000E+00  0.00000000E+00  0.00000000E+00
  0.00000000E+00  0.00000000E+00  0.00000000E+00
  0.00000000E+00  0.00000000E+00  0.00000000E+00
  0.00000000E+00  0.00000000E+00  0.00000000E+00
  0.00000000E+00  0.00000000E+00  0.00000000E+00
  0.00000000E+00  0.00000000E+00  0.00000000E+00
  0.00000000E+00  0.00000000E+00  0.00000000E+00
  0.00000000E+00  0.00000000E+00  0.00000000E+00
  0.00000000E+00  0.00000000E+00  0.00000000E+00
  0.00000000E+00  0.00000000E+00  0.00000000E+00
  0.00000000E+00  0.00000000E+00  0.00000000E+00
  0.00000000E+00  0.00000000E+00  0.00000000E+00
  0.00000000E+00  0.00000000E+00  0.00000000E+00
  0.00000000E+00  0.00000000E+00  0.00000000E+00
  0.00000000E+00  0.00000000E+00  0.00000000E+00
  0.00000000E+00  0.00000000E+00  0.00000000E+00
  0.00000000E+00  0.00000000E+00  0.00000000E+00
  0.00000000E+00  0.00000000E+00  0.00000000E+00
  0.00000000E+00  0.00000000E+00  0.00000000E+00
  0.00000000E+00  0.00000000E+00  0.00000000E+00
  0.00000000E+00  0.00000000E+00  0.00000000E+00
  0.00000000E+00  0.00000000E+00  0.00000000E+00
  0.00000000E+00  0.00000000E+00  0.00000000E+00
  0.00000000E+00  0.00000000E+00  0.00000000E+00
  0.00000000E+00  0.00000000E+00  0.00000000E+00
  0.00000000E+00  0.00000000E+00  0.00000000E+00
  0.00000000E+00  0.00000000E+00  0.00000000E+00
