#generated using str2pos                
    1.000000000000000     
    13.0574318992783081   -0.0032798018399019    0.0079523388167650
    -0.0032798488722018   13.0568698814531068    0.0051241501699374
     0.0079565830652628    0.0051268386968418   13.0366142948234351
   Ta   W 
    90    38
Direct
  0.2499143847495144  0.2470783347890747  0.2501373273560902
  0.4987989869422129  0.2490000487304563  0.2510778626639649
  0.3774886556643859  0.1245157649278676  0.1243936709516756
  0.7524347797425780  0.2544404414619056  0.2519418135597865
  0.6280063965418102  0.1220427184364379  0.1250283045381597
  0.0003803603581750  0.2493786228304296  0.2493948731265625
  0.8712706683547679  0.1217403300908808  0.1253327820389758
  0.1253360818148310  0.3814745081447821  0.1260067576114526
  0.5009415489158149  0.5044077386437553  0.2455827814251317
  0.3758967813790128  0.3779894953662264  0.1235766675049411
  0.7487872297981994  0.5007521883503775  0.2496712948932470
  0.6249770018669661  0.3766628531914297  0.1218419665770952
  0.8771628317661285  0.3799434500241172  0.1220791613416891
  0.1251132061052785  0.6260738360603194  0.1263111327972841
  0.5005275264362063  0.7470707496615843  0.2458091031905036
  0.7464330413159823  0.7457587662921146  0.2459158550535820
  0.8789296208654890  0.6230821028772663  0.1239058248746858
  0.2476705439677634  0.0017820886574859  0.2516088621428915
  0.1275164254511637  0.8693333879924613  0.1253146336709748
  0.4956939764237674  0.0000673246816028  0.2521943568193385
  0.3723503192865350  0.8717794353230549  0.1251756467989137
  0.6268556078444750  0.8779335307554971  0.1246908519392204
  0.0050455364276038  0.0004713067573446  0.2506322527446817
  0.8741966385067514  0.8754643604602396  0.1272145761319111
  0.2527638647565414  0.2490473041236100  0.4996102136394130
  0.1229776029222052  0.1257365828738160  0.3807485197879502
  0.4955557741528600  0.2452089637548482  0.5015905370446053
  0.7512098870417089  0.2508419451398813  0.5015644159879297
  0.6287665687691625  0.1213635687305465  0.3757690996759651
  0.8740399413807840  0.1224957236687603  0.3763247926107500
  0.2468003308757116  0.4993452510663819  0.5002977158504127
  0.1252889913805199  0.3767428875060717  0.3735982160508164
  0.3741963108295120  0.3800192373459504  0.3747184022883625
  0.7532783098790461  0.4968581897206725  0.4978872950018863
  0.6210931115225187  0.3766457858077094  0.3772109465389661
 -0.0009970196860808  0.5001844775871295  0.5001355914448660
  0.1256930311581188  0.6264134072169589  0.3704398390749231
  0.4982622515793187  0.7517976990818824  0.5009368549438753
  0.3713904448730922  0.6258953395412986  0.3751633073852595
  0.6236522245101523  0.6254860949631066  0.3786658638538537
  0.0015205841957727  0.7521167787963162  0.4995873797325904
  0.8768764782003973  0.6279556873115573  0.3724734124595006
  0.4957377751314671  0.0014979275383930  0.5005335834538327
  0.3702978017459252  0.8717780932376780  0.3762046601347318
  0.6277256266494634  0.8760339324983747  0.3761578098701253
  0.0004601394678154 -0.0015994676634546  0.5008547845231460
  0.8718657797000346  0.8747388239271623  0.3742312130767366
  0.1249584254441596  0.1269899141157568  0.6259986520115794
  0.4998546849160755  0.2480022748328294  0.7511148506206301
  0.7483916091930047  0.2499728089356238  0.7499713373090320
  0.6246493057962307  0.1208045818380377  0.6257046104632015
  0.1254932446731118  0.3721787279600967  0.6279505804457363
  0.3742947694584069  0.3784000139877767  0.6282314209597641
  0.7472843295271099  0.4992906576830952  0.7522032149257041
  0.6204969135573110  0.3774891792480969  0.6249660282990189
 -0.0009201074668540  0.5024947297988939  0.7484775091227744
  0.8777507816061639  0.3724925330827604  0.6270357031082731
  0.1293622121930718  0.6270002436111902  0.6264635669491017
  0.4995845050663376  0.7499585418019217  0.7553862811430465
  0.3738677417621992  0.6242736068524528  0.6266681077323951
  0.6231984017579145  0.6254065012753823  0.6251064684053875
 -0.0018246249499275  0.7511932193785777  0.7512554800699529
  0.8704778594918006  0.6285064803594475  0.6251848683976893
  0.2540406736116791  0.0008613908602903  0.7516943097935326
  0.1292668343820212  0.8745107150648512  0.6247650056093083
  0.3728308478575826  0.8739153612670001  0.6255819213202392
  0.7518188185968940 -0.0018193206465673  0.7510959901019917
  0.6259140271772301  0.8743370676076651  0.6250208436971763
 -0.0029196977723569 -0.0019811982978920  0.7500907570577163
  0.8702006271997574  0.8730636568045962  0.6226424608636045
  0.2510223519409568  0.2482161763503027  0.0008770101033397
  0.1250152932213242  0.1285586428045943  0.8706326367381843
  0.5005234728848306  0.2498529291101413 -0.0042440563236462
  0.7489022788443921  0.2520927373008258 -0.0021644911076577
  0.6260661083088679  0.1210892870731397  0.8748354080201327
  0.0031883788591522  0.2475019556480789  0.0031142682546760
  0.8754493660868771  0.1258474991435996  0.8762160149193703
  0.2544850078314466  0.5029975658621555 -0.0006539308120822
  0.1265269673770250  0.3762958409764656  0.8730364979376490
  0.3749369600633453  0.3778154910215357  0.8720248564430045
  0.8783495434312976  0.3760349942332835  0.8765531267931023
  0.1283212818145284  0.6252904195199551  0.8753834278879197
  0.5013664693477363  0.7479488091548420 -0.0028576746282502
  0.7471109109923387  0.7488536650980772 -0.0018559898560813
 -0.0023041172554163  0.7530132449021958 -0.0033333998781790
  0.8733871678206284  0.6228564184417503  0.8764802724422392
  0.2522233945929740  0.0014350695265328 -0.0017816279373520
  0.1287059947489929  0.8720912120321869  0.8746436467258440
  0.4981562955969197 -0.0031662429417180 -0.0034799117320170
  0.0025804655312763 -0.0006063718798161  0.0001347754363541
  0.1254425447739503  0.1246530384504106  0.1250972106646485
  0.2519597838740947  0.5020660849937209  0.2478959447317322
 -0.0009035513516743  0.4992217873088037  0.2515511531687122
  0.2504595881255572  0.7506260055108331  0.2493947540581971
  0.3729067095623370  0.6257137549164843  0.1235164770716958
  0.6250106250422480  0.6231675444753925  0.1210083079474836
  0.0006361253958747  0.7517216910153319  0.2503916031520456
  0.7506919010473559 -0.0007755957158744  0.2501100703041640
  0.3729068750404690  0.1233895973330626  0.3767551135387799
 -0.0016232412600656  0.2496552254709666  0.5000066141326102
  0.4985822914144771  0.5008273236032732  0.5005337582355464
  0.8779470854183559  0.3751184920376834  0.3746498741719665
  0.2480578060134030  0.7511355439328152  0.4990802891260416
  0.7487723774593773  0.7490698621682953  0.4994477521361047
  0.2501081459308366  0.0018670057852350  0.5003673781145025
  0.1261420170194776  0.8728633416704996  0.3754448828925940
  0.7507502730057524  0.0015707415991696  0.5028393672752074
  0.2536813085803337  0.2476465192691820  0.7499235027985305
  0.3734264106863758  0.1235394629204842  0.6269447336598274
 -0.0009283782546939  0.2490229999219203  0.7499605140801756
  0.8761461044960794  0.1249432920968449  0.6244875196015884
  0.2515839920618657  0.5017238068627977  0.7514175091020664
  0.5013262339431327  0.5018005376285506  0.7540186715377900
  0.2534174918327566  0.7509964204602001  0.7525311782048815
  0.7469288305015150  0.7504337378079399  0.7543343019576054
  0.4988113698757267 -0.0017447109527359  0.7516866833843927
  0.3762177107955973  0.1250001769681321  0.8727598553617586
  0.5006998692804766  0.5038634632872568 -0.0015700832225892
  0.7463086565692787  0.5015693279047585 -0.0014211111283055
  0.6236085451313849  0.3777114283795580  0.8751162220643771
  0.0021988890462016  0.5012262739106398 -0.0008612064151787
  0.2544670706597305  0.7486693443456711 -0.0007934711012754
  0.3751786690169840  0.6240433558190107  0.8741062967912124
  0.6241756939466803  0.6232684982537591  0.8740804793894925
  0.3747263198669448  0.8726411641562641  0.8741735863098130
  0.7500147184616794 -0.0036532513723634 -0.0034250530960066
  0.6250891561146957  0.8747363241211150  0.8736904396440616
  0.8728042441955474  0.8744617345735354  0.8750352383370841
 
  0.00000000E+00  0.00000000E+00  0.00000000E+00
  0.00000000E+00  0.00000000E+00  0.00000000E+00
  0.00000000E+00  0.00000000E+00  0.00000000E+00
  0.00000000E+00  0.00000000E+00  0.00000000E+00
  0.00000000E+00  0.00000000E+00  0.00000000E+00
  0.00000000E+00  0.00000000E+00  0.00000000E+00
  0.00000000E+00  0.00000000E+00  0.00000000E+00
  0.00000000E+00  0.00000000E+00  0.00000000E+00
  0.00000000E+00  0.00000000E+00  0.00000000E+00
  0.00000000E+00  0.00000000E+00  0.00000000E+00
  0.00000000E+00  0.00000000E+00  0.00000000E+00
  0.00000000E+00  0.00000000E+00  0.00000000E+00
  0.00000000E+00  0.00000000E+00  0.00000000E+00
  0.00000000E+00  0.00000000E+00  0.00000000E+00
  0.00000000E+00  0.00000000E+00  0.00000000E+00
  0.00000000E+00  0.00000000E+00  0.00000000E+00
  0.00000000E+00  0.00000000E+00  0.00000000E+00
  0.00000000E+00  0.00000000E+00  0.00000000E+00
  0.00000000E+00  0.00000000E+00  0.00000000E+00
  0.00000000E+00  0.00000000E+00  0.00000000E+00
  0.00000000E+00  0.00000000E+00  0.00000000E+00
  0.00000000E+00  0.00000000E+00  0.00000000E+00
  0.00000000E+00  0.00000000E+00  0.00000000E+00
  0.00000000E+00  0.00000000E+00  0.00000000E+00
  0.00000000E+00  0.00000000E+00  0.00000000E+00
  0.00000000E+00  0.00000000E+00  0.00000000E+00
  0.00000000E+00  0.00000000E+00  0.00000000E+00
  0.00000000E+00  0.00000000E+00  0.00000000E+00
  0.00000000E+00  0.00000000E+00  0.00000000E+00
  0.00000000E+00  0.00000000E+00  0.00000000E+00
  0.00000000E+00  0.00000000E+00  0.00000000E+00
  0.00000000E+00  0.00000000E+00  0.00000000E+00
  0.00000000E+00  0.00000000E+00  0.00000000E+00
  0.00000000E+00  0.00000000E+00  0.00000000E+00
  0.00000000E+00  0.00000000E+00  0.00000000E+00
  0.00000000E+00  0.00000000E+00  0.00000000E+00
  0.00000000E+00  0.00000000E+00  0.00000000E+00
  0.00000000E+00  0.00000000E+00  0.00000000E+00
  0.00000000E+00  0.00000000E+00  0.00000000E+00
  0.00000000E+00  0.00000000E+00  0.00000000E+00
  0.00000000E+00  0.00000000E+00  0.00000000E+00
  0.00000000E+00  0.00000000E+00  0.00000000E+00
  0.00000000E+00  0.00000000E+00  0.00000000E+00
  0.00000000E+00  0.00000000E+00  0.00000000E+00
  0.00000000E+00  0.00000000E+00  0.00000000E+00
  0.00000000E+00  0.00000000E+00  0.00000000E+00
  0.00000000E+00  0.00000000E+00  0.00000000E+00
  0.00000000E+00  0.00000000E+00  0.00000000E+00
  0.00000000E+00  0.00000000E+00  0.00000000E+00
  0.00000000E+00  0.00000000E+00  0.00000000E+00
  0.00000000E+00  0.00000000E+00  0.00000000E+00
  0.00000000E+00  0.00000000E+00  0.00000000E+00
  0.00000000E+00  0.00000000E+00  0.00000000E+00
  0.00000000E+00  0.00000000E+00  0.00000000E+00
  0.00000000E+00  0.00000000E+00  0.00000000E+00
  0.00000000E+00  0.00000000E+00  0.00000000E+00
  0.00000000E+00  0.00000000E+00  0.00000000E+00
  0.00000000E+00  0.00000000E+00  0.00000000E+00
  0.00000000E+00  0.00000000E+00  0.00000000E+00
  0.00000000E+00  0.00000000E+00  0.00000000E+00
  0.00000000E+00  0.00000000E+00  0.00000000E+00
  0.00000000E+00  0.00000000E+00  0.00000000E+00
  0.00000000E+00  0.00000000E+00  0.00000000E+00
  0.00000000E+00  0.00000000E+00  0.00000000E+00
  0.00000000E+00  0.00000000E+00  0.00000000E+00
  0.00000000E+00  0.00000000E+00  0.00000000E+00
  0.00000000E+00  0.00000000E+00  0.00000000E+00
  0.00000000E+00  0.00000000E+00  0.00000000E+00
  0.00000000E+00  0.00000000E+00  0.00000000E+00
  0.00000000E+00  0.00000000E+00  0.00000000E+00
  0.00000000E+00  0.00000000E+00  0.00000000E+00
  0.00000000E+00  0.00000000E+00  0.00000000E+00
  0.00000000E+00  0.00000000E+00  0.00000000E+00
  0.00000000E+00  0.00000000E+00  0.00000000E+00
  0.00000000E+00  0.00000000E+00  0.00000000E+00
  0.00000000E+00  0.00000000E+00  0.00000000E+00
  0.00000000E+00  0.00000000E+00  0.00000000E+00
  0.00000000E+00  0.00000000E+00  0.00000000E+00
  0.00000000E+00  0.00000000E+00  0.00000000E+00
  0.00000000E+00  0.00000000E+00  0.00000000E+00
  0.00000000E+00  0.00000000E+00  0.00000000E+00
  0.00000000E+00  0.00000000E+00  0.00000000E+00
  0.00000000E+00  0.00000000E+00  0.00000000E+00
  0.00000000E+00  0.00000000E+00  0.00000000E+00
  0.00000000E+00  0.00000000E+00  0.00000000E+00
  0.00000000E+00  0.00000000E+00  0.00000000E+00
  0.00000000E+00  0.00000000E+00  0.00000000E+00
  0.00000000E+00  0.00000000E+00  0.00000000E+00
  0.00000000E+00  0.00000000E+00  0.00000000E+00
  0.00000000E+00  0.00000000E+00  0.00000000E+00
  0.00000000E+00  0.00000000E+00  0.00000000E+00
  0.00000000E+00  0.00000000E+00  0.00000000E+00
  0.00000000E+00  0.00000000E+00  0.00000000E+00
  0.00000000E+00  0.00000000E+00  0.00000000E+00
  0.00000000E+00  0.00000000E+00  0.00000000E+00
  0.00000000E+00  0.00000000E+00  0.00000000E+00
  0.00000000E+00  0.00000000E+00  0.00000000E+00
  0.00000000E+00  0.00000000E+00  0.00000000E+00
  0.00000000E+00  0.00000000E+00  0.00000000E+00
  0.00000000E+00  0.00000000E+00  0.00000000E+00
  0.00000000E+00  0.00000000E+00  0.00000000E+00
  0.00000000E+00  0.00000000E+00  0.00000000E+00
  0.00000000E+00  0.00000000E+00  0.00000000E+00
  0.00000000E+00  0.00000000E+00  0.00000000E+00
  0.00000000E+00  0.00000000E+00  0.00000000E+00
  0.00000000E+00  0.00000000E+00  0.00000000E+00
  0.00000000E+00  0.00000000E+00  0.00000000E+00
  0.00000000E+00  0.00000000E+00  0.00000000E+00
  0.00000000E+00  0.00000000E+00  0.00000000E+00
  0.00000000E+00  0.00000000E+00  0.00000000E+00
  0.00000000E+00  0.00000000E+00  0.00000000E+00
  0.00000000E+00  0.00000000E+00  0.00000000E+00
  0.00000000E+00  0.00000000E+00  0.00000000E+00
  0.00000000E+00  0.00000000E+00  0.00000000E+00
  0.00000000E+00  0.00000000E+00  0.00000000E+00
  0.00000000E+00  0.00000000E+00  0.00000000E+00
  0.00000000E+00  0.00000000E+00  0.00000000E+00
  0.00000000E+00  0.00000000E+00  0.00000000E+00
  0.00000000E+00  0.00000000E+00  0.00000000E+00
  0.00000000E+00  0.00000000E+00  0.00000000E+00
  0.00000000E+00  0.00000000E+00  0.00000000E+00
  0.00000000E+00  0.00000000E+00  0.00000000E+00
  0.00000000E+00  0.00000000E+00  0.00000000E+00
  0.00000000E+00  0.00000000E+00  0.00000000E+00
  0.00000000E+00  0.00000000E+00  0.00000000E+00
  0.00000000E+00  0.00000000E+00  0.00000000E+00
  0.00000000E+00  0.00000000E+00  0.00000000E+00
  0.00000000E+00  0.00000000E+00  0.00000000E+00
