#generated using str2pos                
    1.000000000000000     
    12.8252351499537838    0.0006607021680195   -0.0029009924524393
     0.0006610009387226   12.8169056274186595   -0.0004374616112924
    -0.0029014050555253   -0.0004373800582513   12.8232063953242825
   Ta   W 
    38    90
Direct
  0.2509431954874201  0.2491517517976413  0.2509620148350681
  0.1240670987397564  0.3759367680722082  0.1237057880544517
  0.2507406764682080  0.7508253014908467  0.2507039167583702
  0.1241010987886581  0.6238298879091558  0.1239329988500403
  0.2503009363700105 -0.0000999725681431  0.2500401783432506
  0.2499116703063260  0.2499632765848496  0.5001563983837745
  0.6257308942150686  0.1250286570560805  0.3758863599543504
  0.8750050304130949  0.1252377749993162  0.3752524261582598
  0.2508698857383865  0.4987592725159575  0.4992436110601811
  0.4985242221009379  0.5010217355629535  0.5005947851791740
  0.6263108531667406  0.3741513222747345  0.3746249678481313
  0.8748298706217457  0.3752812190552441  0.3750559872920723
  0.4989582647291334  0.7491114754777993  0.5009351435409155
  0.8752007523090505  0.6247713671771222  0.3749470125652363
  0.2503139117512554  0.0003773391449973  0.5003641919787344
  0.6262031394251666  0.8760325235422967  0.3745965191060042
  0.8751407739865938  0.8748548532756164  0.3753294311854569
  0.6254146263061114  0.1249783194995851  0.6246936350427967
  0.8747034408878499  0.1249817247197528  0.6248988641553948
  0.5001860279595327  0.4998423693777402  0.7501689503865901
  0.7488282373373057  0.4991672918736060  0.7512114738583813
  0.1237604756359206  0.6256817928702127  0.6260314508017621
  0.4995963503336803  0.7501232587504001  0.7499213446192704
  0.8762955863856399  0.6258185018806901  0.6239454044326199
  0.2500008678406891  0.0002454400156934  0.7498760122810809
  0.8754049605616391  0.8752354830777841  0.6248786799984388
  0.5002500433977671  0.2499008876817426 -0.0002513830263090
  0.7497732424718340  0.2499301250463209 -0.0004613397043813
  0.1246830403054783  0.3751077869364300  0.8750881666514833
  0.5000513296697239  0.4998427697460154  0.0002347729901584
  0.7492770606802661  0.4999659926932444 -0.0003784566549652
  0.1245718484042622  0.6245353151922196  0.8749792089563105
  0.5001505908622502  0.7500813350912139 -0.0001942552546176
  0.7498944647103560  0.7499675782451463 -0.0000496089794410
  0.2496825914545016  0.0000061211466837 -0.0003130284079439
  0.4997823507494937  0.0002096065610378 -0.0000307767909462
  0.7504437591085619  0.0000553779213957 -0.0002729422346965
  0.0001240475010263 -0.0000144038032920 -0.0000861062926227
  0.1234367773277305  0.1266958791754280  0.1247731097049661
  0.4987299868094549  0.2501628754680284  0.2485197619135685
  0.3757809833857595  0.1259771759003800  0.1254289810739069
  0.7502538589423705  0.2502068776000598  0.2466301831025819
  0.6253925299045692  0.1249284126089395  0.1279667346619902
  0.0010657036375889  0.2492837709460139  0.2492767105345603
  0.8756853901025178  0.1256963661690802  0.1267437537511886
  0.2516306956276990  0.5001821545421808  0.2513660325707779
  0.4995721583332189  0.5005446222821993  0.2494837160158072
  0.3739333189420374  0.3758354981720473  0.1253276110403732
  0.7490836422662767  0.5008220161902118  0.2476276410687968
  0.6249598272214061  0.3751500499542070  0.1282860809438127
 -0.0002211069576181  0.5000107936369357  0.2499101704657467
  0.8764246629789921  0.3750458720837450  0.1262366278619630
  0.4990934816243290  0.7492890370853517  0.2496435946351704
  0.3740414294452398  0.6240388724329168  0.1258454439707150
  0.7493510347719201  0.7491615405457486  0.2475792735394219
  0.6249014304973097  0.6250212061532030  0.1282477888500262
  0.0010325859108698  0.7507299150265448  0.2489687241879320
  0.8761158425387888  0.6248794804268025  0.1266406763847427
  0.1234841830874894  0.8733360412975638  0.1250085214999525
  0.4989077485058308  0.0000661622689093  0.2486104910878086
  0.3757717909553497  0.8740315027039494  0.1257193583573817
  0.7503304221951880 -0.0001436487951849  0.2467345987526707
  0.6253781181592952  0.8748485069958098  0.1279885897049232
  0.0016025052411746  0.0000465862314752  0.2480806888080971
  0.8756134847942242  0.8743623382414727  0.1267148554921282
  0.1225075474375616  0.1247491038325585  0.3751952761748630
  0.4975496493887407  0.2507724846658541  0.5009932852472322
  0.3781963866913717  0.1249022527520408  0.3753080138280704
  0.7505818327008454  0.2517284290724141  0.5018308623597884
  0.0028830147279461  0.2506854532437019  0.5011042391427430
  0.1228252092823262  0.3755644614174017  0.3741812848299959
  0.3768395570015804  0.3750420774756669  0.3736569514142702
  0.7485055361993624  0.5002218967032162  0.5016705060103972
  0.0021312362589002  0.4983476758618635  0.4996542781463048
  0.2511779968905379  0.7506188992320351  0.4993187357694343
  0.1236314637597828  0.6252101269721752  0.3749105067032855
  0.3748680085174549  0.6249131757288614  0.3733308025501739
  0.7475904791452170  0.7490014302136578  0.5005822443473905
  0.6265174257480240  0.6249650533361106  0.3737241844766029
  0.0027262884787380  0.7507791973954425  0.4991113302134100
  0.1231411887723160  0.8744176466890661  0.3759049160662039
  0.4974122445958784 -0.0010104984154029  0.5006260781277742
  0.3765864732093864  0.8748017606725290  0.3753756501801114
  0.7495567613469485 -0.0007857880568552  0.5010214007298185
  0.0039481347961474  0.0004674466125192  0.4999646854659499
  0.2504210944150949  0.2490067551979110  0.7492014889713173
  0.1230437808602642  0.1256375909385143  0.6257349551500140
  0.4991683966377499  0.2503571777885180  0.7508748138581152
  0.3773985352358508  0.1256567053529805  0.6258835204838581
  0.7501255497172478  0.2512798189178795  0.7518800481312610
  0.0002276815380894  0.2496570595265592  0.7499299887743166
  0.2517944698146895  0.4991463964374723  0.7490845068394882
  0.1235779199424727  0.3750674772721999  0.6266578375211805
  0.3746307436631559  0.3731822068911133  0.6267122998825688
  0.6258173942520328  0.3723362659916886  0.6237074553854959
 -0.0019219885373173  0.4981301863394028  0.7499310234106632
  0.8756980646164545  0.3742838872246072  0.6243317459582489
  0.2510723661559708  0.7517784633178819  0.7501758689127952
  0.3718864921339658  0.6255449282642309  0.6257504213434243
  0.7484363242592765  0.7498695628934261  0.7518128011885796
  0.6273223611338588  0.6257012556882147  0.6238522319928770
  0.0001384864802332  0.7518137585682724  0.7515900909420189
  0.1236771592890008  0.8738254375189456  0.6248943094009921
  0.4989671212941570 -0.0003913953453482  0.7506913677771212
  0.3746255384661967  0.8754441285680784  0.6251109642529723
  0.7494227762886081 -0.0005166947067934  0.7524479214942331
  0.6266685139450321  0.8770383959620339  0.6244335724454974
  0.0016713648804047  0.0006498162438030  0.7517624158411265
  0.2512966298122151  0.2487547992356929 -0.0001056158928426
  0.1242779528861025  0.1273923898040119  0.8741617084123703
  0.3746631111330851  0.1266994712349226  0.8733554956103338
  0.6249730078423013  0.1245478082365561  0.8715391136631164
 -0.0016284465428981  0.2481200296520695 -0.0006273377296643
  0.8759444268846801  0.1256268302946459  0.8729570740918196
  0.2523743358478831  0.4999977919023742 -0.0000036319688912
  0.3718257294834032  0.3740850368732427  0.8744514102434294
  0.6246819245770765  0.3729189913407670  0.8735045488843629
 -0.0032435895789634  0.4999221994941795  0.0000610498300256
  0.8775586139177055  0.3741072383756214  0.8742417187166215
  0.2510029618376199  0.7512946834081271  0.0003138990474382
  0.3708965200780741  0.6246761289609961  0.8756543858666189
  0.6254997722887331  0.6260201123244110  0.8747661507558399
 -0.0016238047146502  0.7517909401134436  0.0000071743395356
  0.8775154910924979  0.6256123330392490  0.8744832095770709
  0.1239106099109908  0.8729350955775681  0.8740543498827857
  0.3738224716822336  0.8745667599451654  0.8740906832538848
  0.6259079183719942  0.8762800132847612  0.8727431607534835
  0.8759180783279030  0.8746527434094304  0.8728530530178282
 
  0.00000000E+00  0.00000000E+00  0.00000000E+00
  0.00000000E+00  0.00000000E+00  0.00000000E+00
  0.00000000E+00  0.00000000E+00  0.00000000E+00
  0.00000000E+00  0.00000000E+00  0.00000000E+00
  0.00000000E+00  0.00000000E+00  0.00000000E+00
  0.00000000E+00  0.00000000E+00  0.00000000E+00
  0.00000000E+00  0.00000000E+00  0.00000000E+00
  0.00000000E+00  0.00000000E+00  0.00000000E+00
  0.00000000E+00  0.00000000E+00  0.00000000E+00
  0.00000000E+00  0.00000000E+00  0.00000000E+00
  0.00000000E+00  0.00000000E+00  0.00000000E+00
  0.00000000E+00  0.00000000E+00  0.00000000E+00
  0.00000000E+00  0.00000000E+00  0.00000000E+00
  0.00000000E+00  0.00000000E+00  0.00000000E+00
  0.00000000E+00  0.00000000E+00  0.00000000E+00
  0.00000000E+00  0.00000000E+00  0.00000000E+00
  0.00000000E+00  0.00000000E+00  0.00000000E+00
  0.00000000E+00  0.00000000E+00  0.00000000E+00
  0.00000000E+00  0.00000000E+00  0.00000000E+00
  0.00000000E+00  0.00000000E+00  0.00000000E+00
  0.00000000E+00  0.00000000E+00  0.00000000E+00
  0.00000000E+00  0.00000000E+00  0.00000000E+00
  0.00000000E+00  0.00000000E+00  0.00000000E+00
  0.00000000E+00  0.00000000E+00  0.00000000E+00
  0.00000000E+00  0.00000000E+00  0.00000000E+00
  0.00000000E+00  0.00000000E+00  0.00000000E+00
  0.00000000E+00  0.00000000E+00  0.00000000E+00
  0.00000000E+00  0.00000000E+00  0.00000000E+00
  0.00000000E+00  0.00000000E+00  0.00000000E+00
  0.00000000E+00  0.00000000E+00  0.00000000E+00
  0.00000000E+00  0.00000000E+00  0.00000000E+00
  0.00000000E+00  0.00000000E+00  0.00000000E+00
  0.00000000E+00  0.00000000E+00  0.00000000E+00
  0.00000000E+00  0.00000000E+00  0.00000000E+00
  0.00000000E+00  0.00000000E+00  0.00000000E+00
  0.00000000E+00  0.00000000E+00  0.00000000E+00
  0.00000000E+00  0.00000000E+00  0.00000000E+00
  0.00000000E+00  0.00000000E+00  0.00000000E+00
  0.00000000E+00  0.00000000E+00  0.00000000E+00
  0.00000000E+00  0.00000000E+00  0.00000000E+00
  0.00000000E+00  0.00000000E+00  0.00000000E+00
  0.00000000E+00  0.00000000E+00  0.00000000E+00
  0.00000000E+00  0.00000000E+00  0.00000000E+00
  0.00000000E+00  0.00000000E+00  0.00000000E+00
  0.00000000E+00  0.00000000E+00  0.00000000E+00
  0.00000000E+00  0.00000000E+00  0.00000000E+00
  0.00000000E+00  0.00000000E+00  0.00000000E+00
  0.00000000E+00  0.00000000E+00  0.00000000E+00
  0.00000000E+00  0.00000000E+00  0.00000000E+00
  0.00000000E+00  0.00000000E+00  0.00000000E+00
  0.00000000E+00  0.00000000E+00  0.00000000E+00
  0.00000000E+00  0.00000000E+00  0.00000000E+00
  0.00000000E+00  0.00000000E+00  0.00000000E+00
  0.00000000E+00  0.00000000E+00  0.00000000E+00
  0.00000000E+00  0.00000000E+00  0.00000000E+00
  0.00000000E+00  0.00000000E+00  0.00000000E+00
  0.00000000E+00  0.00000000E+00  0.00000000E+00
  0.00000000E+00  0.00000000E+00  0.00000000E+00
  0.00000000E+00  0.00000000E+00  0.00000000E+00
  0.00000000E+00  0.00000000E+00  0.00000000E+00
  0.00000000E+00  0.00000000E+00  0.00000000E+00
  0.00000000E+00  0.00000000E+00  0.00000000E+00
  0.00000000E+00  0.00000000E+00  0.00000000E+00
  0.00000000E+00  0.00000000E+00  0.00000000E+00
  0.00000000E+00  0.00000000E+00  0.00000000E+00
  0.00000000E+00  0.00000000E+00  0.00000000E+00
  0.00000000E+00  0.00000000E+00  0.00000000E+00
  0.00000000E+00  0.00000000E+00  0.00000000E+00
  0.00000000E+00  0.00000000E+00  0.00000000E+00
  0.00000000E+00  0.00000000E+00  0.00000000E+00
  0.00000000E+00  0.00000000E+00  0.00000000E+00
  0.00000000E+00  0.00000000E+00  0.00000000E+00
  0.00000000E+00  0.00000000E+00  0.00000000E+00
  0.00000000E+00  0.00000000E+00  0.00000000E+00
  0.00000000E+00  0.00000000E+00  0.00000000E+00
  0.00000000E+00  0.00000000E+00  0.00000000E+00
  0.00000000E+00  0.00000000E+00  0.00000000E+00
  0.00000000E+00  0.00000000E+00  0.00000000E+00
  0.00000000E+00  0.00000000E+00  0.00000000E+00
  0.00000000E+00  0.00000000E+00  0.00000000E+00
  0.00000000E+00  0.00000000E+00  0.00000000E+00
  0.00000000E+00  0.00000000E+00  0.00000000E+00
  0.00000000E+00  0.00000000E+00  0.00000000E+00
  0.00000000E+00  0.00000000E+00  0.00000000E+00
  0.00000000E+00  0.00000000E+00  0.00000000E+00
  0.00000000E+00  0.00000000E+00  0.00000000E+00
  0.00000000E+00  0.00000000E+00  0.00000000E+00
  0.00000000E+00  0.00000000E+00  0.00000000E+00
  0.00000000E+00  0.00000000E+00  0.00000000E+00
  0.00000000E+00  0.00000000E+00  0.00000000E+00
  0.00000000E+00  0.00000000E+00  0.00000000E+00
  0.00000000E+00  0.00000000E+00  0.00000000E+00
  0.00000000E+00  0.00000000E+00  0.00000000E+00
  0.00000000E+00  0.00000000E+00  0.00000000E+00
  0.00000000E+00  0.00000000E+00  0.00000000E+00
  0.00000000E+00  0.00000000E+00  0.00000000E+00
  0.00000000E+00  0.00000000E+00  0.00000000E+00
  0.00000000E+00  0.00000000E+00  0.00000000E+00
  0.00000000E+00  0.00000000E+00  0.00000000E+00
  0.00000000E+00  0.00000000E+00  0.00000000E+00
  0.00000000E+00  0.00000000E+00  0.00000000E+00
  0.00000000E+00  0.00000000E+00  0.00000000E+00
  0.00000000E+00  0.00000000E+00  0.00000000E+00
  0.00000000E+00  0.00000000E+00  0.00000000E+00
  0.00000000E+00  0.00000000E+00  0.00000000E+00
  0.00000000E+00  0.00000000E+00  0.00000000E+00
  0.00000000E+00  0.00000000E+00  0.00000000E+00
  0.00000000E+00  0.00000000E+00  0.00000000E+00
  0.00000000E+00  0.00000000E+00  0.00000000E+00
  0.00000000E+00  0.00000000E+00  0.00000000E+00
  0.00000000E+00  0.00000000E+00  0.00000000E+00
  0.00000000E+00  0.00000000E+00  0.00000000E+00
  0.00000000E+00  0.00000000E+00  0.00000000E+00
  0.00000000E+00  0.00000000E+00  0.00000000E+00
  0.00000000E+00  0.00000000E+00  0.00000000E+00
  0.00000000E+00  0.00000000E+00  0.00000000E+00
  0.00000000E+00  0.00000000E+00  0.00000000E+00
  0.00000000E+00  0.00000000E+00  0.00000000E+00
  0.00000000E+00  0.00000000E+00  0.00000000E+00
  0.00000000E+00  0.00000000E+00  0.00000000E+00
  0.00000000E+00  0.00000000E+00  0.00000000E+00
  0.00000000E+00  0.00000000E+00  0.00000000E+00
  0.00000000E+00  0.00000000E+00  0.00000000E+00
  0.00000000E+00  0.00000000E+00  0.00000000E+00
  0.00000000E+00  0.00000000E+00  0.00000000E+00
  0.00000000E+00  0.00000000E+00  0.00000000E+00
  0.00000000E+00  0.00000000E+00  0.00000000E+00
  0.00000000E+00  0.00000000E+00  0.00000000E+00
