#generated using str2pos                
    1.000000000000000     
    12.9686358409322189    0.0132185294147578    0.0050850132502142
     0.0132104767850752   12.9486162179056734   -0.0070821602589883
     0.0050761270563615   -0.0070838598554535   12.9566086087146211
   Ta   W 
    70    58
Direct
  0.2502695448217875  0.2480312148202230  0.2506479319994728
  0.7506119954648055  0.2499819930018630  0.2470270296128682
  0.0017386549066866  0.2490765114077534  0.2484194821017207
  0.2492501378265492  0.5006702342659032  0.2511093465752697
  0.3788569140243593  0.3732713118837485  0.1241886457508672
  0.8753838590772403  0.3813458967333174  0.1254061786805609
  0.2493832420159450  0.7508716817577828  0.2501401205037691
  0.3791996193609477  0.6225980754196709  0.1262275416469709
  0.6269580245733918  0.6245137982473736  0.1260686835685723
  0.8742133684941130  0.6255027010214159  0.1254393423281286
  0.7506326811219466  0.0042515462923980  0.2484400918891201
  0.6268802229777460  0.8732776245197462  0.1266004004373903
  0.0040497064848760  0.0012227305429957  0.2481646764841930
  0.8739662281853390  0.8702155122642153  0.1239549496484832
  0.2526675619204483  0.2484971721021745  0.4983957664826797
  0.4945159901561486  0.2502219787245316  0.4994578956957220
  0.6235117722338470  0.1270291552988886  0.3744691363223991
  0.8762059046979663  0.1266879902079124  0.3795536701186217
  0.2515807636766107  0.4993739291509026  0.4970393259742028
  0.1213466238673436  0.3757722424138998  0.3763651309039916
  0.7503788945252712  0.5019364591917153  0.5011087617234722
  0.6240964110341126  0.3771065001942153  0.3745270900178791
  0.2498629493022657  0.7508658817480426  0.4950093056497061
  0.6242338089321934  0.6257060195907839  0.3729158753024295
  0.0011556757428355  0.7484890433590320  0.4985151773933867
  0.8739644741218709  0.6252496216302006  0.3716412926442504
  0.2518521788865691  0.0000868166721657  0.4972064211531362
  0.4945564849131032  0.0006516525226460  0.4991607253991026
  0.7485286224706434 -0.0000811912832636  0.4979622441219845
  0.6234238410485153  0.8713345965449050  0.3729333268005770
  0.8742078856870228  0.8727454475853356  0.3737152639330159
  0.2511545485782923  0.2510045793899762  0.7480694351224996
  0.1192116126548653  0.1246958042955976  0.6252587156527449
  0.6279416967272414  0.1278853912344340  0.6273438635589907
  0.8755801359953835  0.1271195708324939  0.6260572712357840
  0.2495547281560524  0.4957023273963860  0.7500626994528891
  0.1193277910884162  0.3746549547180555  0.6238414577466649
  0.6258041220628829  0.3747439097671569  0.6270311735030937
  0.8751678396991853  0.3735065041677825  0.6268183763435791
  0.1247024997346577  0.6234859012105408  0.6261691503353105
  0.5000906377893032  0.7515322177051583  0.7492259306576698
  0.3759773555685331  0.6243595646059510  0.6244604627189625
  0.7498677054177890  0.7465544435757441  0.7468014783717712
 -0.0019841982853084  0.7489241157371543  0.7492893533679446
  0.2529403930162316 -0.0007832160089040  0.7494624586606634
  0.1230351191100270  0.8760850379348947  0.6250653545458410
  0.4950935621583128 -0.0021174482210592  0.7485629451006078
  0.6265247782225661  0.8744615163579953  0.6218026762991539
  0.8750364400153141  0.8780743496412271  0.6243227480277838
  0.1251276420406988  0.1260926474770776  0.8737515079402055
  0.3760507032765070  0.1296234884881093  0.8781069852471880
  0.7505118053626459  0.2494273807821641  0.0055085690002236
  0.6260446430521091  0.1269817094541761  0.8740247008099170
  0.0018547511496817  0.2497387475770208  0.0037133081118785
  0.8745768773249595  0.1245335696258453  0.8711700845619250
  0.2471746315070842  0.4988903651298837  0.0024439003873885
  0.3794142387308659  0.3739544238069886  0.8776675858631323
  0.6246851957586890  0.3757587129715003  0.8745446843355734
  0.8740462483342044  0.3768911757634472  0.8738804016976264
  0.2497889486447250  0.7523825834835024  0.0022986567687608
  0.1225751905237974  0.6243116988618566  0.8751239035443292
  0.4963593749618141  0.7533685738518170 -0.0008664969883002
  0.3761143082075611  0.6217542489877083  0.8735885661879955
  0.6259953970486025  0.6211181432229416  0.8771388036560690
  0.8747205022819386  0.6228324330350231  0.8784805667442201
  0.2503166555806791 -0.0022282901760594  0.0021998752148868
  0.4974530257718083 -0.0002329498346394  0.0026190849901211
  0.6292179065976753  0.8765343052813908  0.8764391882585796
  0.0038275037848556  0.0009353508896900  0.0040351277836936
  0.8738185453304680  0.8763275810051212  0.8768481305622248
  0.1296908282019466  0.1246920148205732  0.1252157513490578
  0.4990696438511184  0.2490641005053872  0.2500520747278119
  0.3763073535699102  0.1264879568896423  0.1260843691442380
  0.6222324950937013  0.1250651410366521  0.1249076210813525
  0.8754024655092189  0.1243806769841640  0.1243934866633244
  0.1251998752376478  0.3760594862694117  0.1253354739111883
  0.4992340071247991  0.4989425766770710  0.2513914491806007
  0.7500918016957748  0.4974261874189420  0.2513840506177240
  0.6237272278898464  0.3775017336056118  0.1255045435603653
  0.0021662382320739  0.5006195132395910  0.2499596378378912
  0.1210537622809589  0.6251350201932796  0.1248957592305684
  0.4963030953467879  0.7508026752806356  0.2506496968696886
  0.7499897998326459  0.7497754876939435  0.2500518324486378
  0.0048629818355158  0.7503064086174541  0.2502266033977992
  0.2501929705203976 -0.0004890372298301  0.2500695854501919
  0.1247173974663841  0.8739132831885585  0.1262320366799331
  0.4965358162175049  0.0010771124160562  0.2490310580240767
  0.3757472648164062  0.8765522904915358  0.1286583401431406
  0.1246089533376099  0.1247320724159464  0.3760991852687673
  0.3752925879867309  0.1234906714784276  0.3705311701188980
  0.7498831210510569  0.2529114891375219  0.4976586580399131
  0.0002484432201815  0.2505638109278058  0.4974727858907509
  0.4986231734324638  0.4999195497201418  0.4992918218361093
  0.3776238719568432  0.3758251930245843  0.3726612213352796
 -0.0019726515780734  0.5015359787331114  0.4984793908504884
  0.8751681188369751  0.3768843302237272  0.3763803270767658
  0.1220136788538659  0.6236226093815617  0.3737090680980237
  0.4972298038223516  0.7497914010920604  0.4994043490172152
  0.3789653082114802  0.6252994189561681  0.3750561844403460
  0.7498271455033778  0.7471501094893497  0.5018221174771876
  0.1246618109568978  0.8757914367190863  0.3737588590547818
  0.3764041046308989  0.8745082213239039  0.3724413596372700
  0.0026137131964989 -0.0007377905062028  0.4963890285453303
  0.4977702498103916  0.2497675500371796  0.7479688846074748
  0.3748500539255928  0.1260344897067539  0.6253952142806347
  0.7500494863231804  0.2515562923705045  0.7514974041874980
  0.0014985853967106  0.2516260954188820  0.7525244057465641
  0.5001843021106023  0.5000452825575362  0.7478572054061947
  0.3778534789774267  0.3769697232968566  0.6258853706331629
  0.7498900813950552  0.5028108742309442  0.7472993225733043
 -0.0002418797631833  0.5004748463710030  0.7508309922558276
  0.2502252408945474  0.7520974593962161  0.7509864904779859
  0.6230870506833182  0.6232738932402778  0.6232664247641040
  0.8747946058976788  0.6223285488001173  0.6242540614652830
  0.3739778736245126  0.8712975847732353  0.6229276260609667
  0.7493541234659034 -0.0008017340009059  0.7494630948511602
  0.0022010260102742 -0.0017676123049091  0.7522625973088939
  0.2486598561774794  0.2496605908744327  0.0027056445698371
  0.5021840832346371  0.2483925775915276  0.0037668172940681
  0.1231675850639919  0.3747395629355518  0.8750441184062713
  0.5014051469842518  0.4987964678522767  0.0018663511490419
  0.7496462945300877  0.4980304069342503  0.0014212297915428
  0.0031199044417441  0.4987152968397139  0.0016386406070267
  0.7496226759661422  0.7496306103119290 -0.0008664416766663
  0.0039316119360741  0.7509868003585843  0.0008915212520846
  0.1230951858278424  0.8739545053635389  0.8740197381805036
  0.3735730987729424  0.8739744219695185  0.8747234685995133
  0.7501991646373815  0.0034147630014607  0.0029974039594729
 
  0.00000000E+00  0.00000000E+00  0.00000000E+00
  0.00000000E+00  0.00000000E+00  0.00000000E+00
  0.00000000E+00  0.00000000E+00  0.00000000E+00
  0.00000000E+00  0.00000000E+00  0.00000000E+00
  0.00000000E+00  0.00000000E+00  0.00000000E+00
  0.00000000E+00  0.00000000E+00  0.00000000E+00
  0.00000000E+00  0.00000000E+00  0.00000000E+00
  0.00000000E+00  0.00000000E+00  0.00000000E+00
  0.00000000E+00  0.00000000E+00  0.00000000E+00
  0.00000000E+00  0.00000000E+00  0.00000000E+00
  0.00000000E+00  0.00000000E+00  0.00000000E+00
  0.00000000E+00  0.00000000E+00  0.00000000E+00
  0.00000000E+00  0.00000000E+00  0.00000000E+00
  0.00000000E+00  0.00000000E+00  0.00000000E+00
  0.00000000E+00  0.00000000E+00  0.00000000E+00
  0.00000000E+00  0.00000000E+00  0.00000000E+00
  0.00000000E+00  0.00000000E+00  0.00000000E+00
  0.00000000E+00  0.00000000E+00  0.00000000E+00
  0.00000000E+00  0.00000000E+00  0.00000000E+00
  0.00000000E+00  0.00000000E+00  0.00000000E+00
  0.00000000E+00  0.00000000E+00  0.00000000E+00
  0.00000000E+00  0.00000000E+00  0.00000000E+00
  0.00000000E+00  0.00000000E+00  0.00000000E+00
  0.00000000E+00  0.00000000E+00  0.00000000E+00
  0.00000000E+00  0.00000000E+00  0.00000000E+00
  0.00000000E+00  0.00000000E+00  0.00000000E+00
  0.00000000E+00  0.00000000E+00  0.00000000E+00
  0.00000000E+00  0.00000000E+00  0.00000000E+00
  0.00000000E+00  0.00000000E+00  0.00000000E+00
  0.00000000E+00  0.00000000E+00  0.00000000E+00
  0.00000000E+00  0.00000000E+00  0.00000000E+00
  0.00000000E+00  0.00000000E+00  0.00000000E+00
  0.00000000E+00  0.00000000E+00  0.00000000E+00
  0.00000000E+00  0.00000000E+00  0.00000000E+00
  0.00000000E+00  0.00000000E+00  0.00000000E+00
  0.00000000E+00  0.00000000E+00  0.00000000E+00
  0.00000000E+00  0.00000000E+00  0.00000000E+00
  0.00000000E+00  0.00000000E+00  0.00000000E+00
  0.00000000E+00  0.00000000E+00  0.00000000E+00
  0.00000000E+00  0.00000000E+00  0.00000000E+00
  0.00000000E+00  0.00000000E+00  0.00000000E+00
  0.00000000E+00  0.00000000E+00  0.00000000E+00
  0.00000000E+00  0.00000000E+00  0.00000000E+00
  0.00000000E+00  0.00000000E+00  0.00000000E+00
  0.00000000E+00  0.00000000E+00  0.00000000E+00
  0.00000000E+00  0.00000000E+00  0.00000000E+00
  0.00000000E+00  0.00000000E+00  0.00000000E+00
  0.00000000E+00  0.00000000E+00  0.00000000E+00
  0.00000000E+00  0.00000000E+00  0.00000000E+00
  0.00000000E+00  0.00000000E+00  0.00000000E+00
  0.00000000E+00  0.00000000E+00  0.00000000E+00
  0.00000000E+00  0.00000000E+00  0.00000000E+00
  0.00000000E+00  0.00000000E+00  0.00000000E+00
  0.00000000E+00  0.00000000E+00  0.00000000E+00
  0.00000000E+00  0.00000000E+00  0.00000000E+00
  0.00000000E+00  0.00000000E+00  0.00000000E+00
  0.00000000E+00  0.00000000E+00  0.00000000E+00
  0.00000000E+00  0.00000000E+00  0.00000000E+00
  0.00000000E+00  0.00000000E+00  0.00000000E+00
  0.00000000E+00  0.00000000E+00  0.00000000E+00
  0.00000000E+00  0.00000000E+00  0.00000000E+00
  0.00000000E+00  0.00000000E+00  0.00000000E+00
  0.00000000E+00  0.00000000E+00  0.00000000E+00
  0.00000000E+00  0.00000000E+00  0.00000000E+00
  0.00000000E+00  0.00000000E+00  0.00000000E+00
  0.00000000E+00  0.00000000E+00  0.00000000E+00
  0.00000000E+00  0.00000000E+00  0.00000000E+00
  0.00000000E+00  0.00000000E+00  0.00000000E+00
  0.00000000E+00  0.00000000E+00  0.00000000E+00
  0.00000000E+00  0.00000000E+00  0.00000000E+00
  0.00000000E+00  0.00000000E+00  0.00000000E+00
  0.00000000E+00  0.00000000E+00  0.00000000E+00
  0.00000000E+00  0.00000000E+00  0.00000000E+00
  0.00000000E+00  0.00000000E+00  0.00000000E+00
  0.00000000E+00  0.00000000E+00  0.00000000E+00
  0.00000000E+00  0.00000000E+00  0.00000000E+00
  0.00000000E+00  0.00000000E+00  0.00000000E+00
  0.00000000E+00  0.00000000E+00  0.00000000E+00
  0.00000000E+00  0.00000000E+00  0.00000000E+00
  0.00000000E+00  0.00000000E+00  0.00000000E+00
  0.00000000E+00  0.00000000E+00  0.00000000E+00
  0.00000000E+00  0.00000000E+00  0.00000000E+00
  0.00000000E+00  0.00000000E+00  0.00000000E+00
  0.00000000E+00  0.00000000E+00  0.00000000E+00
  0.00000000E+00  0.00000000E+00  0.00000000E+00
  0.00000000E+00  0.00000000E+00  0.00000000E+00
  0.00000000E+00  0.00000000E+00  0.00000000E+00
  0.00000000E+00  0.00000000E+00  0.00000000E+00
  0.00000000E+00  0.00000000E+00  0.00000000E+00
  0.00000000E+00  0.00000000E+00  0.00000000E+00
  0.00000000E+00  0.00000000E+00  0.00000000E+00
  0.00000000E+00  0.00000000E+00  0.00000000E+00
  0.00000000E+00  0.00000000E+00  0.00000000E+00
  0.00000000E+00  0.00000000E+00  0.00000000E+00
  0.00000000E+00  0.00000000E+00  0.00000000E+00
  0.00000000E+00  0.00000000E+00  0.00000000E+00
  0.00000000E+00  0.00000000E+00  0.00000000E+00
  0.00000000E+00  0.00000000E+00  0.00000000E+00
  0.00000000E+00  0.00000000E+00  0.00000000E+00
  0.00000000E+00  0.00000000E+00  0.00000000E+00
  0.00000000E+00  0.00000000E+00  0.00000000E+00
  0.00000000E+00  0.00000000E+00  0.00000000E+00
  0.00000000E+00  0.00000000E+00  0.00000000E+00
  0.00000000E+00  0.00000000E+00  0.00000000E+00
  0.00000000E+00  0.00000000E+00  0.00000000E+00
  0.00000000E+00  0.00000000E+00  0.00000000E+00
  0.00000000E+00  0.00000000E+00  0.00000000E+00
  0.00000000E+00  0.00000000E+00  0.00000000E+00
  0.00000000E+00  0.00000000E+00  0.00000000E+00
  0.00000000E+00  0.00000000E+00  0.00000000E+00
  0.00000000E+00  0.00000000E+00  0.00000000E+00
  0.00000000E+00  0.00000000E+00  0.00000000E+00
  0.00000000E+00  0.00000000E+00  0.00000000E+00
  0.00000000E+00  0.00000000E+00  0.00000000E+00
  0.00000000E+00  0.00000000E+00  0.00000000E+00
  0.00000000E+00  0.00000000E+00  0.00000000E+00
  0.00000000E+00  0.00000000E+00  0.00000000E+00
  0.00000000E+00  0.00000000E+00  0.00000000E+00
  0.00000000E+00  0.00000000E+00  0.00000000E+00
  0.00000000E+00  0.00000000E+00  0.00000000E+00
  0.00000000E+00  0.00000000E+00  0.00000000E+00
  0.00000000E+00  0.00000000E+00  0.00000000E+00
  0.00000000E+00  0.00000000E+00  0.00000000E+00
  0.00000000E+00  0.00000000E+00  0.00000000E+00
  0.00000000E+00  0.00000000E+00  0.00000000E+00
  0.00000000E+00  0.00000000E+00  0.00000000E+00
  0.00000000E+00  0.00000000E+00  0.00000000E+00
  0.00000000E+00  0.00000000E+00  0.00000000E+00
