#generated using str2pos                
    1.000000000000000     
    12.7788334069821321    0.0019058016586434   -0.0007636308440008
     0.0019053660575368   12.7794808337474617    0.0001176665972092
    -0.0007633309003000    0.0001178366454048   12.7746601969183704
   Ta   W 
    26   102
Direct
  0.1250241088027839  0.1245455918840111  0.1249096901009018
  0.3742429622602110  0.1240925411651939  0.1262424452763844
  0.2502318996274819  0.5004796642364899  0.2499278333035693
  0.8748541456560751  0.3756228068324311  0.1252205520084133
  0.8744359690209089  0.6245538874187803  0.1248615286287381
  0.1251611264938599  0.8750924785923939  0.1250835219469872
  0.3747652107560331  0.8747771482260468  0.1249513201260596
  0.7500224546427176 -0.0000734731602263  0.2499334624850191
  0.1248788428716968  0.1247650759678443  0.3755258868247340
  0.3749738272011991  0.1248921673094718  0.3750950187919141
  0.6250145553932887  0.3753496301199790  0.3746253132203628
  0.0000918780918744  0.5000946010184751  0.5003462205103824
  0.6244357208861817  0.6247829139502433  0.3746161356495168
  0.0000241575440018  0.7494343396954759  0.5005738126480697
  0.1246622744315722  0.1251444138775602  0.6252325004572675
  0.5003545985837611  0.2505859141702907  0.7500709448380036
  0.7501591758045791  0.2505378914486723  0.7494826040354321
  0.2501994595443749  0.4997783522045949  0.7502039543491066
  0.7498291228066385  0.4998604950882580  0.7500918208248244
 -0.0004216314203425  0.7502345784537061  0.7499415667142221
  0.3756455572694439  0.8746630915421231  0.6250846413018798
  0.6248121483333228  0.8749968644114752  0.6248339187018488
  0.5008938499142355  0.2515418493991003 -0.0013175854444602
  0.2502583107850158  0.4999138593615233 -0.0002122023322528
  0.3749270630489364  0.8747834581462034  0.8747556224176308
  0.7505446604039286 -0.0003743579628726  0.0000844634282439
  0.2497902139732796  0.2536904104661284  0.2503933630345641
  0.5011818490676543  0.2510360404215977  0.2491449888206607
  0.7502934758080155  0.2484899569346337  0.2504216981250694
  0.6244828890580799  0.1255236000099103  0.1257334943247257
 -0.0011650488205097  0.2506135435665580  0.2505164987598052
  0.8761981456607788  0.1268292529993667  0.1251145003773907
  0.1232707333611636  0.3736963813851701  0.1249089462324265
  0.4984064561835892  0.5004693726336490  0.2487130270588783
  0.3757359754918158  0.3747291863251879  0.1259263587079157
  0.7496520654215049  0.5001084150421974  0.2497462547303668
  0.6260638033074565  0.3762152684214630  0.1261578840331939
  0.0015461195471184  0.4999901383344955  0.2515151809879153
  0.2500601036775575  0.7476047698757093  0.2516980771128710
  0.1236560567236725  0.6264662148752170  0.1250435092000311
  0.5000622908664070  0.7495410208634963  0.2497363892403035
  0.3767346807325719  0.6262943406460023  0.1252847772870070
  0.7497403471635040  0.7515755283889127  0.2497747784462876
  0.6251909397084537  0.6252124453421720  0.1249317369137402
 -0.0001922892174768  0.7497836039353836  0.2514783866504778
  0.2498424411671224 -0.0021790952116337  0.2518786695925559
  0.5030096092081707 -0.0011510039003621  0.2509888483060608
  0.6237444843945864  0.8734266598124174  0.1251005013878105
 -0.0030372549615976 -0.0009190812712013  0.2507942820598123
  0.8761538479832428  0.8733264772987303  0.1251705898141729
  0.2506060105043992  0.2522816153733758  0.5012040168795520
  0.5002801696136163  0.2505088413512809  0.5014304809295534
  0.7506981299599979  0.2491477194788034  0.5007184065601481
  0.6245293661433691  0.1257186307719294  0.3756128542865346
 -0.0013878415400430  0.2515382349864390  0.5004508987359945
  0.8753749167757399  0.1251847832242486  0.3760193906286580
  0.2499031035903213  0.5002046435257073  0.5002816973523213
  0.1249588385845284  0.3739517851708377  0.3751799610513564
  0.4986398901168287  0.5000641127912103  0.5011695007621800
  0.3757901421982153  0.3746107333722891  0.3759589126213946
  0.7511481507613115  0.4997845599368266  0.5018441357038285
  0.8741999011482833  0.3738699957269541  0.3741274564245260
  0.2493500436197335  0.7487651198807530  0.4994368289492300
  0.1261067272071746  0.6255768268471593  0.3744571447872315
  0.4993130514139912  0.7489600254192633  0.4992414338184128
  0.3757910467920744  0.6256025208352299  0.3757073580104688
  0.7511911897607917  0.7503008492154576  0.5000740593051548
  0.8734532306710051  0.6252291445566421  0.3732926924623173
  0.2499294756449568 -0.0015997107982690  0.5009958110874462
  0.1252738739955453  0.8753367525958204  0.3740752722518172
  0.5012385261519283  0.0006314327070586  0.4994375554825889
  0.3748902633722748  0.8748468066669621  0.3752827268938466
  0.7506043170997980  0.0007253390052107  0.4991981956025598
  0.6247228351094135  0.8740682842470551  0.3757484030152168
 -0.0019665831396423 -0.0013986919199049  0.5006904309094973
  0.8749638431019005  0.8754679121133584  0.3752398934817400
  0.2504237130464946  0.2510454029234024  0.7501956822909888
  0.3741273437009116  0.1244150903363912  0.6239417336520678
  0.6253904487046588  0.1233058347589595  0.6234508158651151
 -0.0007706392314335  0.2500645630703729  0.7507417763367323
  0.8757858018445948  0.1242941366565043  0.6243583417202412
  0.1253277000299203  0.3732643323358699  0.6252164288298988
  0.5001326034558614  0.5000091845725008  0.7499896117845601
  0.3747978118064805  0.3754730880059214  0.6234273294602878
  0.6242317112914846  0.3758192770417726  0.6224419070648095
 -0.0001196185610948  0.5000370956528907  0.7497432545042229
  0.8757911551337431  0.3738738922099362  0.6243196661738204
  0.2483919760164743  0.7482763992934840  0.7496094345583015
  0.1267863956725399  0.6246802979345688  0.6250933098398086
  0.5008588686280768  0.7480254186177484  0.7508296886260991
  0.3758982753627072  0.6254929669583243  0.6240838224319050
  0.7507765143125389  0.7490182737679149  0.7506986380765075
  0.6237787111941010  0.6261614175089784  0.6244359218719204
  0.8733605031162970  0.6249480046856901  0.6253450161369315
  0.2489018548653576  0.0007882745227106  0.7502264615309457
  0.1264127451206188  0.8766980796247533  0.6250268165574840
  0.5009371850740820  0.0021436894122420  0.7501893379668733
  0.7510512330005880  0.0008042739224871  0.7505850212054691
 -0.0007222438165820 -0.0006551497936735  0.7505602530485620
  0.8731591153365624  0.8765797763227661  0.6249063624720680
  0.2498722726219282  0.2519549094502269 -0.0017370421194042
  0.1245541238509356  0.1249704707996544  0.8745198020623026
  0.3734011680406372  0.1235189863255577  0.8748002471969443
  0.7497587771733576  0.2493008869736801 -0.0008330687423989
  0.6257952861097361  0.1236833946865751  0.8747013160804306
 -0.0000162230558596  0.2501239390878772 -0.0014599867800372
  0.8767121691382544  0.1247599791195968  0.8745359805220599
  0.1236043851111636  0.3734160285175242  0.8748178380554342
  0.5001226147522859  0.5003177893431306 -0.0002359406904032
  0.3746675012780826  0.3753892615553994  0.8744399736114485
  0.7487321623515337  0.5005608172153764 -0.0017666765865564
  0.6254651874138537  0.3773336445530554  0.8763042519408185
  0.0011711365960169  0.4997578326482320 -0.0011827384266806
  0.8768111407988488  0.3747821218193560  0.8765252696709263
  0.2494521658139812  0.7473703445043283 -0.0005544694284652
  0.1243096781667390  0.6253870019667209  0.8756277665050680
  0.5017104654767227  0.7482157881149532  0.0001247250256846
  0.3767080889282199  0.6265193929787779  0.8747843160570319
  0.7491682773929196  0.7507028696496159 -0.0006698798140160
  0.6244746883454507  0.6260588135847625  0.8758805755641367
 -0.0006210065116080  0.7498332427388622 -0.0015619913192554
  0.8744469788602548  0.6253052574532360  0.8767714868209832
  0.2488457566681307  0.0005201050056707 -0.0027170399311036
  0.1254203740795939  0.8758240551759919  0.8758256630596974
  0.5029471102552348  0.0006621667641788 -0.0007839913628427
  0.6246954384162285  0.8738309626571774  0.8742273471290782
 -0.0020256376127733  0.0002053890855396 -0.0017832167377693
  0.8750607515176929  0.8753034302082799  0.8747696006208500
 
  0.00000000E+00  0.00000000E+00  0.00000000E+00
  0.00000000E+00  0.00000000E+00  0.00000000E+00
  0.00000000E+00  0.00000000E+00  0.00000000E+00
  0.00000000E+00  0.00000000E+00  0.00000000E+00
  0.00000000E+00  0.00000000E+00  0.00000000E+00
  0.00000000E+00  0.00000000E+00  0.00000000E+00
  0.00000000E+00  0.00000000E+00  0.00000000E+00
  0.00000000E+00  0.00000000E+00  0.00000000E+00
  0.00000000E+00  0.00000000E+00  0.00000000E+00
  0.00000000E+00  0.00000000E+00  0.00000000E+00
  0.00000000E+00  0.00000000E+00  0.00000000E+00
  0.00000000E+00  0.00000000E+00  0.00000000E+00
  0.00000000E+00  0.00000000E+00  0.00000000E+00
  0.00000000E+00  0.00000000E+00  0.00000000E+00
  0.00000000E+00  0.00000000E+00  0.00000000E+00
  0.00000000E+00  0.00000000E+00  0.00000000E+00
  0.00000000E+00  0.00000000E+00  0.00000000E+00
  0.00000000E+00  0.00000000E+00  0.00000000E+00
  0.00000000E+00  0.00000000E+00  0.00000000E+00
  0.00000000E+00  0.00000000E+00  0.00000000E+00
  0.00000000E+00  0.00000000E+00  0.00000000E+00
  0.00000000E+00  0.00000000E+00  0.00000000E+00
  0.00000000E+00  0.00000000E+00  0.00000000E+00
  0.00000000E+00  0.00000000E+00  0.00000000E+00
  0.00000000E+00  0.00000000E+00  0.00000000E+00
  0.00000000E+00  0.00000000E+00  0.00000000E+00
  0.00000000E+00  0.00000000E+00  0.00000000E+00
  0.00000000E+00  0.00000000E+00  0.00000000E+00
  0.00000000E+00  0.00000000E+00  0.00000000E+00
  0.00000000E+00  0.00000000E+00  0.00000000E+00
  0.00000000E+00  0.00000000E+00  0.00000000E+00
  0.00000000E+00  0.00000000E+00  0.00000000E+00
  0.00000000E+00  0.00000000E+00  0.00000000E+00
  0.00000000E+00  0.00000000E+00  0.00000000E+00
  0.00000000E+00  0.00000000E+00  0.00000000E+00
  0.00000000E+00  0.00000000E+00  0.00000000E+00
  0.00000000E+00  0.00000000E+00  0.00000000E+00
  0.00000000E+00  0.00000000E+00  0.00000000E+00
  0.00000000E+00  0.00000000E+00  0.00000000E+00
  0.00000000E+00  0.00000000E+00  0.00000000E+00
  0.00000000E+00  0.00000000E+00  0.00000000E+00
  0.00000000E+00  0.00000000E+00  0.00000000E+00
  0.00000000E+00  0.00000000E+00  0.00000000E+00
  0.00000000E+00  0.00000000E+00  0.00000000E+00
  0.00000000E+00  0.00000000E+00  0.00000000E+00
  0.00000000E+00  0.00000000E+00  0.00000000E+00
  0.00000000E+00  0.00000000E+00  0.00000000E+00
  0.00000000E+00  0.00000000E+00  0.00000000E+00
  0.00000000E+00  0.00000000E+00  0.00000000E+00
  0.00000000E+00  0.00000000E+00  0.00000000E+00
  0.00000000E+00  0.00000000E+00  0.00000000E+00
  0.00000000E+00  0.00000000E+00  0.00000000E+00
  0.00000000E+00  0.00000000E+00  0.00000000E+00
  0.00000000E+00  0.00000000E+00  0.00000000E+00
  0.00000000E+00  0.00000000E+00  0.00000000E+00
  0.00000000E+00  0.00000000E+00  0.00000000E+00
  0.00000000E+00  0.00000000E+00  0.00000000E+00
  0.00000000E+00  0.00000000E+00  0.00000000E+00
  0.00000000E+00  0.00000000E+00  0.00000000E+00
  0.00000000E+00  0.00000000E+00  0.00000000E+00
  0.00000000E+00  0.00000000E+00  0.00000000E+00
  0.00000000E+00  0.00000000E+00  0.00000000E+00
  0.00000000E+00  0.00000000E+00  0.00000000E+00
  0.00000000E+00  0.00000000E+00  0.00000000E+00
  0.00000000E+00  0.00000000E+00  0.00000000E+00
  0.00000000E+00  0.00000000E+00  0.00000000E+00
  0.00000000E+00  0.00000000E+00  0.00000000E+00
  0.00000000E+00  0.00000000E+00  0.00000000E+00
  0.00000000E+00  0.00000000E+00  0.00000000E+00
  0.00000000E+00  0.00000000E+00  0.00000000E+00
  0.00000000E+00  0.00000000E+00  0.00000000E+00
  0.00000000E+00  0.00000000E+00  0.00000000E+00
  0.00000000E+00  0.00000000E+00  0.00000000E+00
  0.00000000E+00  0.00000000E+00  0.00000000E+00
  0.00000000E+00  0.00000000E+00  0.00000000E+00
  0.00000000E+00  0.00000000E+00  0.00000000E+00
  0.00000000E+00  0.00000000E+00  0.00000000E+00
  0.00000000E+00  0.00000000E+00  0.00000000E+00
  0.00000000E+00  0.00000000E+00  0.00000000E+00
  0.00000000E+00  0.00000000E+00  0.00000000E+00
  0.00000000E+00  0.00000000E+00  0.00000000E+00
  0.00000000E+00  0.00000000E+00  0.00000000E+00
  0.00000000E+00  0.00000000E+00  0.00000000E+00
  0.00000000E+00  0.00000000E+00  0.00000000E+00
  0.00000000E+00  0.00000000E+00  0.00000000E+00
  0.00000000E+00  0.00000000E+00  0.00000000E+00
  0.00000000E+00  0.00000000E+00  0.00000000E+00
  0.00000000E+00  0.00000000E+00  0.00000000E+00
  0.00000000E+00  0.00000000E+00  0.00000000E+00
  0.00000000E+00  0.00000000E+00  0.00000000E+00
  0.00000000E+00  0.00000000E+00  0.00000000E+00
  0.00000000E+00  0.00000000E+00  0.00000000E+00
  0.00000000E+00  0.00000000E+00  0.00000000E+00
  0.00000000E+00  0.00000000E+00  0.00000000E+00
  0.00000000E+00  0.00000000E+00  0.00000000E+00
  0.00000000E+00  0.00000000E+00  0.00000000E+00
  0.00000000E+00  0.00000000E+00  0.00000000E+00
  0.00000000E+00  0.00000000E+00  0.00000000E+00
  0.00000000E+00  0.00000000E+00  0.00000000E+00
  0.00000000E+00  0.00000000E+00  0.00000000E+00
  0.00000000E+00  0.00000000E+00  0.00000000E+00
  0.00000000E+00  0.00000000E+00  0.00000000E+00
  0.00000000E+00  0.00000000E+00  0.00000000E+00
  0.00000000E+00  0.00000000E+00  0.00000000E+00
  0.00000000E+00  0.00000000E+00  0.00000000E+00
  0.00000000E+00  0.00000000E+00  0.00000000E+00
  0.00000000E+00  0.00000000E+00  0.00000000E+00
  0.00000000E+00  0.00000000E+00  0.00000000E+00
  0.00000000E+00  0.00000000E+00  0.00000000E+00
  0.00000000E+00  0.00000000E+00  0.00000000E+00
  0.00000000E+00  0.00000000E+00  0.00000000E+00
  0.00000000E+00  0.00000000E+00  0.00000000E+00
  0.00000000E+00  0.00000000E+00  0.00000000E+00
  0.00000000E+00  0.00000000E+00  0.00000000E+00
  0.00000000E+00  0.00000000E+00  0.00000000E+00
  0.00000000E+00  0.00000000E+00  0.00000000E+00
  0.00000000E+00  0.00000000E+00  0.00000000E+00
  0.00000000E+00  0.00000000E+00  0.00000000E+00
  0.00000000E+00  0.00000000E+00  0.00000000E+00
  0.00000000E+00  0.00000000E+00  0.00000000E+00
  0.00000000E+00  0.00000000E+00  0.00000000E+00
  0.00000000E+00  0.00000000E+00  0.00000000E+00
  0.00000000E+00  0.00000000E+00  0.00000000E+00
  0.00000000E+00  0.00000000E+00  0.00000000E+00
  0.00000000E+00  0.00000000E+00  0.00000000E+00
  0.00000000E+00  0.00000000E+00  0.00000000E+00
  0.00000000E+00  0.00000000E+00  0.00000000E+00
  0.00000000E+00  0.00000000E+00  0.00000000E+00
