#generated using str2pos                
    1.000000000000000     
    12.8248199317293423    0.0035057560736946   -0.0040777605159080
     0.0035072761456187   12.8194126355261044    0.0013472900496193
    -0.0040804437311417    0.0013472411348827   12.8191565983631577
   Ta   W 
    38    90
Direct
  0.1240613333928801  0.1256033382155911  0.1256460439143034
  0.3747277403363568  0.1267079486175172  0.1260978902312283
  0.2501180710751512  0.4997784930972974  0.2501614643376407
  0.6254071576698971  0.3754638511418697  0.1246341819026333
  0.8743625867451812  0.3752771270302671  0.1254088937398611
  0.6253262558040695  0.6245261977098725  0.1250760368188201
 -0.0006089814657293  0.7498369125087861  0.2515572976626151
  0.8734821226195401  0.6237372939206576  0.1240055430725766
  0.1251385945520406  0.8756244172800969  0.1246900166140681
  0.3749035076396914  0.8732356977865460  0.1264900543946506
  0.7504576074443755  0.0001236709075694  0.2495155734443781
  0.2495162489779313  0.2508525944313122  0.5013391622430636
  0.5005920981491867  0.2504228819938741  0.4998309490691775
  0.3761874076816713  0.1237529417742592  0.3722289855075772
  0.2501633228401032  0.5001579289164078  0.4993553299028001
  0.8748422531840815  0.3747836908494803  0.3750626900620779
  0.2493411556744045  0.7490708302657207  0.5014190778591235
  0.6253377112964565  0.6250653562747412  0.3748370224069628
  0.2477973350310733 -0.0002520432166527  0.5018840862088630
  0.3771981775028901  0.8749001629066576  0.3731617062301862
  0.0003708180604858  0.0007810215498589  0.5000635800530232
  0.2504676406964305  0.2494765584121379  0.7490457616624179
  0.2518161549346367  0.5000493276109629  0.7486357548525985
  0.6266388214187651  0.3757624411170830  0.6262060446655562
  0.8742708912429298  0.3754750193846110  0.6247929883735940
  0.2510839905012902  0.7506362857428781  0.7489560614739591
  0.8742752070284057  0.6246898660163723  0.6255090745159142
  0.4996912897888008  0.0003107019752250  0.7506855236921789
  0.6263175866469669  0.8742961484201365  0.6240536305747852
  0.0002935715164864  0.0009879366950501  0.7502899294681437
  0.8723768429126750  0.8731840885023058  0.6254161409927393
  0.2513650611188991  0.5001073263196756  0.0023296320519924
  0.1219894110669445  0.3746080263412623  0.8760330412180486
  0.6253876087727176  0.3755511222982417  0.8751954740859670
  0.1218986039587216  0.6256380473058686  0.8758343243311133
  0.2503281597165851  0.0000720991870396 -0.0040192291919310
  0.5024119571204724 -0.0002424046261896 -0.0025139944222069
  0.7501512427539399 -0.0002609981229682  0.0006309355381431
  0.2491006554494652  0.2532844408273305  0.2508102546092092
  0.5012237608990172  0.2513017166566492  0.2504751093148368
  0.7496067906682823  0.2469467466862097  0.2506687580465732
  0.6249146897696349  0.1273016230800834  0.1255909398936810
  0.0000576554496167  0.2495377646436395  0.2505815317423928
  0.8763761860988698  0.1266777263649610  0.1246161744386061
  0.1234186818130119  0.3731931733950298  0.1252610781731862
  0.4974012038418958  0.4992955935352090  0.2506104396259308
  0.3768327672078932  0.3740927724704906  0.1248658525414557
  0.7497049027172332  0.4997289129587185  0.2515421314967986
  0.0026068330532509  0.5006733272752873  0.2510417452905080
  0.2488000757752282  0.7468687850581478  0.2510145132963226
  0.1239795821485873  0.6257893369434661  0.1246462202680388
  0.5006851520196276  0.7493008594643039  0.2494962217482493
  0.3771258012347412  0.6258686313828236  0.1247360206818987
  0.7509721411977931  0.7529453837560299  0.2502369342758228
  0.2483943382570474  0.0001180944655399  0.2512112420769723
  0.5046181853932585  0.0000069374720886  0.2494471223219161
  0.6246199320658241  0.8727209864369996  0.1254022846089787
 -0.0026867948459888 -0.0002077524810383  0.2516935676876218
  0.8757378410595286  0.8740464627746701  0.1240956352370437
  0.1236311361348536  0.1261924227845860  0.3726518198383810
  0.7493212764296736  0.2478190273672494  0.4996223270150997
  0.6258701970703473  0.1248597964259930  0.3751877474332896
  0.0006524527964111  0.2487197306447460  0.5000720331517877
  0.8745128403235454  0.1265519778917884  0.3751637467973270
  0.1223103775236339  0.3745310782774294  0.3743765485609471
  0.4989071185755306  0.4998629924163558  0.5002314882350072
  0.3764700443458511  0.3750326523314449  0.3733215559692123
  0.7491790654716967  0.5006535604918159  0.4999201996451206
  0.6264709699288602  0.3759963765517103  0.3744722557764212
  0.0017711624631240  0.5004697063152972  0.4994760286511394
  0.1232809186156028  0.6245506560883216  0.3753699345549776
  0.4997923266005848  0.7487354494433983  0.5008156442876786
  0.3778478287277350  0.6257502554204588  0.3744808732215821
  0.7498116713965112  0.7500056516057744  0.4989677824433059
  0.0008644711201729  0.7500656420850293  0.4985782527234178
  0.8734640539459616  0.6238910570532954  0.3759630632785289
  0.1249479189127564  0.8749676183114766  0.3733412523986598
  0.5010541744703060  0.0006603990413346  0.5013612695134070
  0.7506515550221686  0.0010469689930540  0.4978385710676851
  0.6249034041505096  0.8740189904537142  0.3759423070621633
  0.8739355358521790  0.8746953797317767  0.3758318747442378
  0.1235028982635107  0.1259357159734930  0.6258447943826863
  0.4991870257062456  0.2488213826453601  0.7498211477530791
  0.3763171639692117  0.1243076835890123  0.6256433564232946
  0.7508708623827487  0.2482547313623258  0.7507534374484242
  0.6269303994299205  0.1247328043558535  0.6246774326251923
 -0.0005225335899971  0.2482630718931753  0.7501999757716096
  0.8732154041498328  0.1264533780463420  0.6253772015535684
  0.1214879653149864  0.3751937100590033  0.6251914045852747
  0.4995247790402780  0.5016797613205320  0.7499541896640394
  0.3781004454166616  0.3762211514175196  0.6257780472146589
  0.7494578762824760  0.5013258518854183  0.7513168108092568
 -0.0008730155226951  0.4998376101610881  0.7499863038062041
  0.1216090986474782  0.6246817413909969  0.6252864344600254
  0.4995933649880975  0.7494067513392734  0.7507458347101622
  0.3785755182383707  0.6249659304912019  0.6252388333865754
  0.7487344951850190  0.7490378619365380  0.7522135157263680
  0.6256939742116773  0.6251863630071757  0.6246929725119565
  0.0000595381507901  0.7512086892188203  0.7509508177939699
  0.2500674125362145  0.0000639822772837  0.7494314999841153
  0.1235789773291489  0.8743384474905911  0.6261526994380473
  0.3775672431721827  0.8744063715614750  0.6245929972697061
  0.7499861603421766  0.0010591118904225  0.7516470991088751
  0.2502158131553573  0.2510128652014879 -0.0011316460169810
  0.1234298339685837  0.1259766108806379  0.8760065094609983
  0.4999660220525086  0.2498443449681036 -0.0005919106848998
  0.3754809388673294  0.1266638619623490  0.8749706172017846
  0.7508581273085772  0.2474738291187736 -0.0008623915723229
  0.6266633792013119  0.1273163281355595  0.8738556399966201
 -0.0014978101452560  0.2494361434772969 -0.0003140110778492
  0.8746012836017287  0.1261108612486699  0.8748727675416074
  0.4980699971561164  0.5009433963502732 -0.0008781794313160
  0.3775855592630252  0.3748228329434019  0.8761028431915775
  0.7503480266910917  0.5009245116430275 -0.0025407087500129
 -0.0004206602020992  0.4997893180473119  0.0003724050563511
  0.8741461036035532  0.3750308462618053  0.8753197304026789
  0.2506720051057421  0.7493392409012670 -0.0014386236438940
  0.5007924788439323  0.7495997912375748 -0.0016680666868922
  0.3778687732480497  0.6254902758563269  0.8756538135471482
  0.7497073127956397  0.7517891513789786 -0.0016444398010626
  0.6255273742406324  0.6247607973891011  0.8750739770682556
 -0.0016757648420722  0.7507258524255472  0.0001236467522302
  0.8739428085034162  0.6251296691842686  0.8750253902713333
  0.1237326726262220  0.8741790425093960  0.8760561559022330
  0.3755121523286990  0.8732192511957791  0.8749237548364924
  0.6264537472530713  0.8725316924494004  0.8735580865760467
 -0.0019822324577395  0.0002004354009139 -0.0017842573443335
  0.8747095576290034  0.8739461270857318  0.8748650574730520
 
  0.00000000E+00  0.00000000E+00  0.00000000E+00
  0.00000000E+00  0.00000000E+00  0.00000000E+00
  0.00000000E+00  0.00000000E+00  0.00000000E+00
  0.00000000E+00  0.00000000E+00  0.00000000E+00
  0.00000000E+00  0.00000000E+00  0.00000000E+00
  0.00000000E+00  0.00000000E+00  0.00000000E+00
  0.00000000E+00  0.00000000E+00  0.00000000E+00
  0.00000000E+00  0.00000000E+00  0.00000000E+00
  0.00000000E+00  0.00000000E+00  0.00000000E+00
  0.00000000E+00  0.00000000E+00  0.00000000E+00
  0.00000000E+00  0.00000000E+00  0.00000000E+00
  0.00000000E+00  0.00000000E+00  0.00000000E+00
  0.00000000E+00  0.00000000E+00  0.00000000E+00
  0.00000000E+00  0.00000000E+00  0.00000000E+00
  0.00000000E+00  0.00000000E+00  0.00000000E+00
  0.00000000E+00  0.00000000E+00  0.00000000E+00
  0.00000000E+00  0.00000000E+00  0.00000000E+00
  0.00000000E+00  0.00000000E+00  0.00000000E+00
  0.00000000E+00  0.00000000E+00  0.00000000E+00
  0.00000000E+00  0.00000000E+00  0.00000000E+00
  0.00000000E+00  0.00000000E+00  0.00000000E+00
  0.00000000E+00  0.00000000E+00  0.00000000E+00
  0.00000000E+00  0.00000000E+00  0.00000000E+00
  0.00000000E+00  0.00000000E+00  0.00000000E+00
  0.00000000E+00  0.00000000E+00  0.00000000E+00
  0.00000000E+00  0.00000000E+00  0.00000000E+00
  0.00000000E+00  0.00000000E+00  0.00000000E+00
  0.00000000E+00  0.00000000E+00  0.00000000E+00
  0.00000000E+00  0.00000000E+00  0.00000000E+00
  0.00000000E+00  0.00000000E+00  0.00000000E+00
  0.00000000E+00  0.00000000E+00  0.00000000E+00
  0.00000000E+00  0.00000000E+00  0.00000000E+00
  0.00000000E+00  0.00000000E+00  0.00000000E+00
  0.00000000E+00  0.00000000E+00  0.00000000E+00
  0.00000000E+00  0.00000000E+00  0.00000000E+00
  0.00000000E+00  0.00000000E+00  0.00000000E+00
  0.00000000E+00  0.00000000E+00  0.00000000E+00
  0.00000000E+00  0.00000000E+00  0.00000000E+00
  0.00000000E+00  0.00000000E+00  0.00000000E+00
  0.00000000E+00  0.00000000E+00  0.00000000E+00
  0.00000000E+00  0.00000000E+00  0.00000000E+00
  0.00000000E+00  0.00000000E+00  0.00000000E+00
  0.00000000E+00  0.00000000E+00  0.00000000E+00
  0.00000000E+00  0.00000000E+00  0.00000000E+00
  0.00000000E+00  0.00000000E+00  0.00000000E+00
  0.00000000E+00  0.00000000E+00  0.00000000E+00
  0.00000000E+00  0.00000000E+00  0.00000000E+00
  0.00000000E+00  0.00000000E+00  0.00000000E+00
  0.00000000E+00  0.00000000E+00  0.00000000E+00
  0.00000000E+00  0.00000000E+00  0.00000000E+00
  0.00000000E+00  0.00000000E+00  0.00000000E+00
  0.00000000E+00  0.00000000E+00  0.00000000E+00
  0.00000000E+00  0.00000000E+00  0.00000000E+00
  0.00000000E+00  0.00000000E+00  0.00000000E+00
  0.00000000E+00  0.00000000E+00  0.00000000E+00
  0.00000000E+00  0.00000000E+00  0.00000000E+00
  0.00000000E+00  0.00000000E+00  0.00000000E+00
  0.00000000E+00  0.00000000E+00  0.00000000E+00
  0.00000000E+00  0.00000000E+00  0.00000000E+00
  0.00000000E+00  0.00000000E+00  0.00000000E+00
  0.00000000E+00  0.00000000E+00  0.00000000E+00
  0.00000000E+00  0.00000000E+00  0.00000000E+00
  0.00000000E+00  0.00000000E+00  0.00000000E+00
  0.00000000E+00  0.00000000E+00  0.00000000E+00
  0.00000000E+00  0.00000000E+00  0.00000000E+00
  0.00000000E+00  0.00000000E+00  0.00000000E+00
  0.00000000E+00  0.00000000E+00  0.00000000E+00
  0.00000000E+00  0.00000000E+00  0.00000000E+00
  0.00000000E+00  0.00000000E+00  0.00000000E+00
  0.00000000E+00  0.00000000E+00  0.00000000E+00
  0.00000000E+00  0.00000000E+00  0.00000000E+00
  0.00000000E+00  0.00000000E+00  0.00000000E+00
  0.00000000E+00  0.00000000E+00  0.00000000E+00
  0.00000000E+00  0.00000000E+00  0.00000000E+00
  0.00000000E+00  0.00000000E+00  0.00000000E+00
  0.00000000E+00  0.00000000E+00  0.00000000E+00
  0.00000000E+00  0.00000000E+00  0.00000000E+00
  0.00000000E+00  0.00000000E+00  0.00000000E+00
  0.00000000E+00  0.00000000E+00  0.00000000E+00
  0.00000000E+00  0.00000000E+00  0.00000000E+00
  0.00000000E+00  0.00000000E+00  0.00000000E+00
  0.00000000E+00  0.00000000E+00  0.00000000E+00
  0.00000000E+00  0.00000000E+00  0.00000000E+00
  0.00000000E+00  0.00000000E+00  0.00000000E+00
  0.00000000E+00  0.00000000E+00  0.00000000E+00
  0.00000000E+00  0.00000000E+00  0.00000000E+00
  0.00000000E+00  0.00000000E+00  0.00000000E+00
  0.00000000E+00  0.00000000E+00  0.00000000E+00
  0.00000000E+00  0.00000000E+00  0.00000000E+00
  0.00000000E+00  0.00000000E+00  0.00000000E+00
  0.00000000E+00  0.00000000E+00  0.00000000E+00
  0.00000000E+00  0.00000000E+00  0.00000000E+00
  0.00000000E+00  0.00000000E+00  0.00000000E+00
  0.00000000E+00  0.00000000E+00  0.00000000E+00
  0.00000000E+00  0.00000000E+00  0.00000000E+00
  0.00000000E+00  0.00000000E+00  0.00000000E+00
  0.00000000E+00  0.00000000E+00  0.00000000E+00
  0.00000000E+00  0.00000000E+00  0.00000000E+00
  0.00000000E+00  0.00000000E+00  0.00000000E+00
  0.00000000E+00  0.00000000E+00  0.00000000E+00
  0.00000000E+00  0.00000000E+00  0.00000000E+00
  0.00000000E+00  0.00000000E+00  0.00000000E+00
  0.00000000E+00  0.00000000E+00  0.00000000E+00
  0.00000000E+00  0.00000000E+00  0.00000000E+00
  0.00000000E+00  0.00000000E+00  0.00000000E+00
  0.00000000E+00  0.00000000E+00  0.00000000E+00
  0.00000000E+00  0.00000000E+00  0.00000000E+00
  0.00000000E+00  0.00000000E+00  0.00000000E+00
  0.00000000E+00  0.00000000E+00  0.00000000E+00
  0.00000000E+00  0.00000000E+00  0.00000000E+00
  0.00000000E+00  0.00000000E+00  0.00000000E+00
  0.00000000E+00  0.00000000E+00  0.00000000E+00
  0.00000000E+00  0.00000000E+00  0.00000000E+00
  0.00000000E+00  0.00000000E+00  0.00000000E+00
  0.00000000E+00  0.00000000E+00  0.00000000E+00
  0.00000000E+00  0.00000000E+00  0.00000000E+00
  0.00000000E+00  0.00000000E+00  0.00000000E+00
  0.00000000E+00  0.00000000E+00  0.00000000E+00
  0.00000000E+00  0.00000000E+00  0.00000000E+00
  0.00000000E+00  0.00000000E+00  0.00000000E+00
  0.00000000E+00  0.00000000E+00  0.00000000E+00
  0.00000000E+00  0.00000000E+00  0.00000000E+00
  0.00000000E+00  0.00000000E+00  0.00000000E+00
  0.00000000E+00  0.00000000E+00  0.00000000E+00
  0.00000000E+00  0.00000000E+00  0.00000000E+00
  0.00000000E+00  0.00000000E+00  0.00000000E+00
  0.00000000E+00  0.00000000E+00  0.00000000E+00
  0.00000000E+00  0.00000000E+00  0.00000000E+00
