#generated using str2pos                
    1.000000000000000     
    13.0816608577221949    0.0043110696845785    0.0045755249141793
     0.0043110847412127   13.0771342408943614   -0.0009583517512423
     0.0045762294004740   -0.0009582055425388   13.0763410292797477
   Ta   W 
    96    32
Direct
  0.1271509644050470  0.1294077330045143  0.1255950358635521
  0.5022665529752488  0.2471359632662510  0.2467025601413703
  0.7481020566860838  0.2505352458365037  0.2503372518189958
 -0.0012044369793136  0.2517406218777959  0.2534746731269165
  0.8744413104621650  0.1284150734564610  0.1240079366662135
  0.2500524838537122  0.4984608039936722  0.2496990405186013
  0.1264835446735023  0.3738043353048100  0.1249017950339170
  0.5038199003010247  0.4995360025982467  0.2487928769151479
  0.3745997090106863  0.3733323036053243  0.1227495600227454
  0.7464727207429676  0.4985985464954480  0.2495562370868733
  0.8753212378182423  0.3751247693183406  0.1250555001848928
  0.2494476755551506  0.7515841721444657  0.2506634192490479
  0.1230287522426055  0.6222424920560706  0.1268522372337438
  0.5039977121969685  0.7476916643082717  0.2523562294494680
  0.3774274288764605  0.6238231754340682  0.1217054173401197
 -0.0001094451287860  0.7545089486447634  0.2490700303727112
  0.8759026056921941  0.6233859112761978  0.1278234742754587
  0.2516611166470134 -0.0005501878745783  0.2486020522707958
  0.1266521086718903  0.8758348901439496  0.1247539317945199
  0.5016646654724616  0.0010548025163789  0.2480636397212209
  0.3780835218526207  0.8715872523128262  0.1229794219615677
  0.7477585217960652 -0.0012938585926554  0.2479666143352920
  0.6241061111556117  0.8709980991672814  0.1246812766533417
  0.0000601982709509 -0.0014974122612411  0.2497865940603395
  0.1294998034171170  0.1269183243594749  0.3759435363551381
  0.4990917604963028  0.2480205102861290  0.5024487840600738
  0.3734845410556324  0.1244097210880804  0.3773243880307487
  0.7531661983756857  0.2504531168782727  0.5011335036177037
  0.6247143988602871  0.1215807030514753  0.3796459461770349
 -0.0020260354361981  0.2510792636126438  0.4989069176411358
  0.8727113110555893  0.1220401813228158  0.3756701057134437
  0.2479184200606426  0.4987967772652389  0.4985088678058868
  0.5007105317270903  0.5005084627302200  0.4982360589237592
  0.3728574121285234  0.3703259287147282  0.3737851288674245
  0.7497609850957553  0.4999335190319616  0.4965333546258546
  0.6233799532494962  0.3718385771357552  0.3761949224888073
 -0.0000520302972175  0.4965928147173903  0.4967295269824998
  0.2484239296580303  0.7509762190155426  0.4979288020793392
  0.1224419670002869  0.6228248661653445  0.3717946565703908
  0.5034411122153568  0.7492428940799417  0.4955030759712128
  0.3737666702797305  0.6238460616016406  0.3735631282542554
  0.7470543440473729  0.7484341033605109  0.4975206039881903
  0.0012236886609682  0.7529974908330535  0.4979318127792998
  0.8757960491467015  0.6264517574069103  0.3704255352094363
  0.3764166095540787  0.8787720626469053  0.3773977201625212
  0.0005427605631714  0.0016158843781861  0.5002375343817692
  0.8711592992574270  0.8753994855352646  0.3759809623323410
  0.1295311390808598  0.1277339714370952  0.6233199289380954
  0.4977331674103010  0.2497062873158989  0.7501570495941544
  0.7525825834910397  0.2512701444366319  0.7502063566312354
  0.6261420734314815  0.1202204011018580  0.6244331825592995
 -0.0034586067943536  0.2491201280817616  0.7492573419026745
  0.2510870124803520  0.5011376221001407  0.7529953073172498
  0.1263076873833023  0.3730965772019322  0.6268250527538949
  0.4971476225556553  0.4960094160839313  0.7514317899545699
  0.3711053728245481  0.3724343653473163  0.6243011488129958
  0.7498155946433790  0.4978485009090433  0.7531071726473909
  0.6243504026074651  0.3740890946628280  0.6257513632908913
  0.8771515613320040  0.3779027536562296  0.6264111591211519
  0.2462526976691872  0.7508936039526690  0.7525122406253826
  0.1230914704349436  0.6232675309865974  0.6244223683495298
  0.3760126448573589  0.6271418958054962  0.6265956057117461
  0.7511668476605484  0.7489026320491764  0.7501449985735266
  0.6234452144632113  0.6266910183418386  0.6283181120235555
  0.0030585919091193  0.7523979696684426  0.7519783334081626
  0.8772035729791037  0.6237801011381148  0.6259541779834481
  0.2511067528244446  0.0002234677533297  0.7514391433870624
  0.1272624893922504  0.8786458342120689  0.6226399926958908
  0.4969539716645133  0.0041541839240615  0.7504169627675749
  0.3774474402195523  0.8764386748304641  0.6236444995525507
  0.6245516551232022  0.8775966033556035  0.6259281112883688
  0.0020487646109173  0.0019729512655444  0.7497384681986554
  0.8716045784854590  0.8774509333233174  0.6246036617171911
  0.1283590885266480  0.1304628532032306  0.8751327467419806
  0.3739943359454537  0.1294008232386648  0.8769566238076792
  0.6257795500406705  0.1265824724074461  0.8762966249942372
 -0.0017254859970905  0.2523270543511951 -0.0018089379397696
  0.8714573776965975  0.1244430797229361  0.8765458775377520
  0.2493761879773870  0.5011373279255201 -0.0039430702037453
  0.1262668255807219  0.3729355921839640  0.8728522988745330
  0.7489056146402534  0.4991648268196113  0.0024166484393284
  0.6227251677437960  0.3734090687117543  0.8790867007769280
 -0.0001048259271600  0.4997812663440021 -0.0031217551818599
  0.2464047949778891  0.7498596526306943 -0.0029924005025478
  0.3804429861935485  0.6270562846618876  0.8767098106243506
  0.7514981791579772  0.7491480965993320  0.0030273288018931
  0.6211520341799800  0.6256724537291767  0.8768944838703366
  0.0007696418828809  0.7517453464783492 -0.0014895248784365
  0.8746324821270889  0.6245752532886865  0.8745754547337464
  0.2513592734940023 -0.0001790896248280 -0.0005119676367161
  0.5000258761585232  0.0038681511510729  0.0035250636689395
  0.3801620831999917  0.8726629841140687  0.8751223145861621
  0.7487941843378341 -0.0007464073353994  0.0046730895846917
  0.6233135590180768  0.8740099198444307  0.8741218945328002
  0.0005547577807520 -0.0013914524377913 -0.0003551675798604
  0.8707295588424813  0.8775242880410186  0.8721772516052732
  0.2508558988243363  0.2492865151261622  0.2496056596506314
  0.3742363058620224  0.1285508811191652  0.1243381353861101
  0.6251656690366628  0.1263377452989380  0.1238350777173784
  0.6233505313448663  0.3735378513542337  0.1218207789648066
 -0.0009583129660421  0.4972937011110299  0.2508792553494528
  0.7480721144102714  0.7491131452130638  0.2497861257844091
  0.6248935487762792  0.6249503702836283  0.1234615447830028
  0.8730946695842761  0.8738472351187774  0.1262246592597476
  0.2498163007051222  0.2499175663115724  0.5001427438689017
  0.1261883332294697  0.3732495369655756  0.3734322296360111
  0.8752346171448112  0.3758278979988760  0.3732391066192407
  0.6269595039523965  0.6249122359086939  0.3731900391907177
  0.2504509684233518  0.0005551680593253  0.5001622412815200
  0.1264576221927055  0.8778006817327642  0.3756512669340519
  0.5001002459339627 -0.0005207940756695  0.5001601996595170
  0.7499960740163496 -0.0009006531200879  0.4993218898140860
  0.6259447011352323  0.8762102927550076  0.3757481356954528
  0.2522893811959935  0.2504079021305871  0.7500704972171954
  0.3733166721554640  0.1250433051076188  0.6236314817537539
  0.8734879779657079  0.1232947326332332  0.6255317990359865
  0.0006821222588731  0.4998440708376764  0.7519352547545350
  0.4997946317837647  0.7508767807743134  0.7491688366373593
  0.7503026513418644  0.0020509306962647  0.7500850761451966
  0.2527717486255031  0.2510253856498371 -0.0001621871748531
  0.4998821348024776  0.2497068164090299  0.0026688455507893
  0.7479529964521265  0.2513421944878887  0.0018203947401497
  0.5008862469326414  0.4973157979667615  0.0016680924613908
  0.3745106220286600  0.3733619020403944  0.8775241363234816
  0.8743144319509907  0.3751160198337365  0.8758936688601406
  0.1237907281638775  0.6225998898184306  0.8739613740587796
  0.5023423371456891  0.7485374909408365  0.0027038216703091
  0.1255702778497314  0.8774108212712671  0.8745532201916799
 
  0.00000000E+00  0.00000000E+00  0.00000000E+00
  0.00000000E+00  0.00000000E+00  0.00000000E+00
  0.00000000E+00  0.00000000E+00  0.00000000E+00
  0.00000000E+00  0.00000000E+00  0.00000000E+00
  0.00000000E+00  0.00000000E+00  0.00000000E+00
  0.00000000E+00  0.00000000E+00  0.00000000E+00
  0.00000000E+00  0.00000000E+00  0.00000000E+00
  0.00000000E+00  0.00000000E+00  0.00000000E+00
  0.00000000E+00  0.00000000E+00  0.00000000E+00
  0.00000000E+00  0.00000000E+00  0.00000000E+00
  0.00000000E+00  0.00000000E+00  0.00000000E+00
  0.00000000E+00  0.00000000E+00  0.00000000E+00
  0.00000000E+00  0.00000000E+00  0.00000000E+00
  0.00000000E+00  0.00000000E+00  0.00000000E+00
  0.00000000E+00  0.00000000E+00  0.00000000E+00
  0.00000000E+00  0.00000000E+00  0.00000000E+00
  0.00000000E+00  0.00000000E+00  0.00000000E+00
  0.00000000E+00  0.00000000E+00  0.00000000E+00
  0.00000000E+00  0.00000000E+00  0.00000000E+00
  0.00000000E+00  0.00000000E+00  0.00000000E+00
  0.00000000E+00  0.00000000E+00  0.00000000E+00
  0.00000000E+00  0.00000000E+00  0.00000000E+00
  0.00000000E+00  0.00000000E+00  0.00000000E+00
  0.00000000E+00  0.00000000E+00  0.00000000E+00
  0.00000000E+00  0.00000000E+00  0.00000000E+00
  0.00000000E+00  0.00000000E+00  0.00000000E+00
  0.00000000E+00  0.00000000E+00  0.00000000E+00
  0.00000000E+00  0.00000000E+00  0.00000000E+00
  0.00000000E+00  0.00000000E+00  0.00000000E+00
  0.00000000E+00  0.00000000E+00  0.00000000E+00
  0.00000000E+00  0.00000000E+00  0.00000000E+00
  0.00000000E+00  0.00000000E+00  0.00000000E+00
  0.00000000E+00  0.00000000E+00  0.00000000E+00
  0.00000000E+00  0.00000000E+00  0.00000000E+00
  0.00000000E+00  0.00000000E+00  0.00000000E+00
  0.00000000E+00  0.00000000E+00  0.00000000E+00
  0.00000000E+00  0.00000000E+00  0.00000000E+00
  0.00000000E+00  0.00000000E+00  0.00000000E+00
  0.00000000E+00  0.00000000E+00  0.00000000E+00
  0.00000000E+00  0.00000000E+00  0.00000000E+00
  0.00000000E+00  0.00000000E+00  0.00000000E+00
  0.00000000E+00  0.00000000E+00  0.00000000E+00
  0.00000000E+00  0.00000000E+00  0.00000000E+00
  0.00000000E+00  0.00000000E+00  0.00000000E+00
  0.00000000E+00  0.00000000E+00  0.00000000E+00
  0.00000000E+00  0.00000000E+00  0.00000000E+00
  0.00000000E+00  0.00000000E+00  0.00000000E+00
  0.00000000E+00  0.00000000E+00  0.00000000E+00
  0.00000000E+00  0.00000000E+00  0.00000000E+00
  0.00000000E+00  0.00000000E+00  0.00000000E+00
  0.00000000E+00  0.00000000E+00  0.00000000E+00
  0.00000000E+00  0.00000000E+00  0.00000000E+00
  0.00000000E+00  0.00000000E+00  0.00000000E+00
  0.00000000E+00  0.00000000E+00  0.00000000E+00
  0.00000000E+00  0.00000000E+00  0.00000000E+00
  0.00000000E+00  0.00000000E+00  0.00000000E+00
  0.00000000E+00  0.00000000E+00  0.00000000E+00
  0.00000000E+00  0.00000000E+00  0.00000000E+00
  0.00000000E+00  0.00000000E+00  0.00000000E+00
  0.00000000E+00  0.00000000E+00  0.00000000E+00
  0.00000000E+00  0.00000000E+00  0.00000000E+00
  0.00000000E+00  0.00000000E+00  0.00000000E+00
  0.00000000E+00  0.00000000E+00  0.00000000E+00
  0.00000000E+00  0.00000000E+00  0.00000000E+00
  0.00000000E+00  0.00000000E+00  0.00000000E+00
  0.00000000E+00  0.00000000E+00  0.00000000E+00
  0.00000000E+00  0.00000000E+00  0.00000000E+00
  0.00000000E+00  0.00000000E+00  0.00000000E+00
  0.00000000E+00  0.00000000E+00  0.00000000E+00
  0.00000000E+00  0.00000000E+00  0.00000000E+00
  0.00000000E+00  0.00000000E+00  0.00000000E+00
  0.00000000E+00  0.00000000E+00  0.00000000E+00
  0.00000000E+00  0.00000000E+00  0.00000000E+00
  0.00000000E+00  0.00000000E+00  0.00000000E+00
  0.00000000E+00  0.00000000E+00  0.00000000E+00
  0.00000000E+00  0.00000000E+00  0.00000000E+00
  0.00000000E+00  0.00000000E+00  0.00000000E+00
  0.00000000E+00  0.00000000E+00  0.00000000E+00
  0.00000000E+00  0.00000000E+00  0.00000000E+00
  0.00000000E+00  0.00000000E+00  0.00000000E+00
  0.00000000E+00  0.00000000E+00  0.00000000E+00
  0.00000000E+00  0.00000000E+00  0.00000000E+00
  0.00000000E+00  0.00000000E+00  0.00000000E+00
  0.00000000E+00  0.00000000E+00  0.00000000E+00
  0.00000000E+00  0.00000000E+00  0.00000000E+00
  0.00000000E+00  0.00000000E+00  0.00000000E+00
  0.00000000E+00  0.00000000E+00  0.00000000E+00
  0.00000000E+00  0.00000000E+00  0.00000000E+00
  0.00000000E+00  0.00000000E+00  0.00000000E+00
  0.00000000E+00  0.00000000E+00  0.00000000E+00
  0.00000000E+00  0.00000000E+00  0.00000000E+00
  0.00000000E+00  0.00000000E+00  0.00000000E+00
  0.00000000E+00  0.00000000E+00  0.00000000E+00
  0.00000000E+00  0.00000000E+00  0.00000000E+00
  0.00000000E+00  0.00000000E+00  0.00000000E+00
  0.00000000E+00  0.00000000E+00  0.00000000E+00
  0.00000000E+00  0.00000000E+00  0.00000000E+00
  0.00000000E+00  0.00000000E+00  0.00000000E+00
  0.00000000E+00  0.00000000E+00  0.00000000E+00
  0.00000000E+00  0.00000000E+00  0.00000000E+00
  0.00000000E+00  0.00000000E+00  0.00000000E+00
  0.00000000E+00  0.00000000E+00  0.00000000E+00
  0.00000000E+00  0.00000000E+00  0.00000000E+00
  0.00000000E+00  0.00000000E+00  0.00000000E+00
  0.00000000E+00  0.00000000E+00  0.00000000E+00
  0.00000000E+00  0.00000000E+00  0.00000000E+00
  0.00000000E+00  0.00000000E+00  0.00000000E+00
  0.00000000E+00  0.00000000E+00  0.00000000E+00
  0.00000000E+00  0.00000000E+00  0.00000000E+00
  0.00000000E+00  0.00000000E+00  0.00000000E+00
  0.00000000E+00  0.00000000E+00  0.00000000E+00
  0.00000000E+00  0.00000000E+00  0.00000000E+00
  0.00000000E+00  0.00000000E+00  0.00000000E+00
  0.00000000E+00  0.00000000E+00  0.00000000E+00
  0.00000000E+00  0.00000000E+00  0.00000000E+00
  0.00000000E+00  0.00000000E+00  0.00000000E+00
  0.00000000E+00  0.00000000E+00  0.00000000E+00
  0.00000000E+00  0.00000000E+00  0.00000000E+00
  0.00000000E+00  0.00000000E+00  0.00000000E+00
  0.00000000E+00  0.00000000E+00  0.00000000E+00
  0.00000000E+00  0.00000000E+00  0.00000000E+00
  0.00000000E+00  0.00000000E+00  0.00000000E+00
  0.00000000E+00  0.00000000E+00  0.00000000E+00
  0.00000000E+00  0.00000000E+00  0.00000000E+00
  0.00000000E+00  0.00000000E+00  0.00000000E+00
  0.00000000E+00  0.00000000E+00  0.00000000E+00
  0.00000000E+00  0.00000000E+00  0.00000000E+00
  0.00000000E+00  0.00000000E+00  0.00000000E+00
