#BCC aalvarado POSCAR generator         
    12.76000000000000     
     1.0273858343086673   -0.0003453307681818    0.0005437956436839
    -0.0003453269783156    1.0273749726245605    0.0000900883233197
     0.0005439246597376    0.0000901237677773    1.0271773728103140
   Ta   W 
   102    26
Direct
  0.5000642409404055  0.4988552642125023  0.4963711334172050
  0.6251241951696669  0.6250645904302663  0.6234393007661029
  0.6248997135263836  0.6261952684589418  0.3745409202338577
  0.3750775371109212  0.3701099134293660  0.3737813921071530
  0.6256562701080359  0.3762095938107210  0.6261623905280328
  0.3748036984319172  0.3731490304814202  0.6248019413082059
  0.3740798014526728  0.6269180590484550  0.6284721387009771
  0.7491463003240931  0.7527678563054377  0.7517842511197813
  0.7538579631368506  0.7512889894055866  0.5002079561132932
  0.7498442768441493  0.4995846195253532  0.4969568660978818
  0.7478883318056693  0.5023884791368740  0.7526611417677903
  0.5010097301727576  0.5014873250058738  0.7519636310080577
  0.4977964340332718  0.7482747197058072  0.4984167067440175
  0.5034674919351820  0.7501401874981727  0.7542201132212792
  0.7516700430854787  0.7480623550326411  0.2508181664663903
  0.7494279867800763  0.4996309029786429  0.2522025718242371
  0.4972433802302080  0.4983878295139559  0.2513633419015791
  0.4979150067303136  0.7481557588294474  0.2503354648794523
  0.7509390896630399  0.2515075761848787  0.2533498773971483
  0.7504574753040799  0.2472527076530276  0.5004091507226920
  0.5033790555272382  0.2492786954169044  0.5014088973247237
  0.2499737067220643  0.2483515093097423  0.2479622271576485
  0.2462831542577197  0.2474422157746858  0.4996810227812582
  0.2520477337676520  0.4999287808709599  0.2487727878442127
  0.2527460734580152  0.5011385766811216  0.4972299259691049
  0.7504333219502916  0.2467441398717173  0.7472586452928947
  0.5007484506250663  0.2469429321963426  0.7493127989956758
  0.2462609464245517  0.2478144131896837  0.7507833304920288
  0.2506452788469378  0.4979740687959755  0.7494348793650891
  0.2524824598948125  0.7474278475455055  0.4973312974927583
  0.8755464498920029  0.8779526629177363  0.8778339165492899
  0.8750649169657650  0.6245176682531132  0.6267753389359459
  0.8790061157199903  0.6248465619125076  0.8769372978502092
  0.6239077938291269  0.8733775199377520  0.6229326950124887
  0.8765557892314948  0.8760871447740999  0.3733351593473000
  0.6248742746765208  0.8757556132413680  0.3751837506558908
  0.8768056874986906  0.3747598569925008  0.3754193940088185
  0.8751437000275955  0.3761647787025877  0.6249688075401011
  0.8770869370639937  0.3759882146935656  0.8759636363913240
  0.6220665512594429  0.3743541443656092  0.8773228676252732
  0.3741923632744284  0.3766880667142489  0.8774997161726680
  0.3715135342462939  0.6238451587529092  0.8772828455273382
  0.3719484329710404  0.8766846534674499  0.3750016569471705
  0.3717360102720713  0.8756036590692529  0.6265717803431988
  0.3697063982349643  0.8758887078347636  0.8736733888715205
  0.8727574626546607  0.8777160235979087  0.1235894427205029
  0.8757537509455160  0.6236316946371886  0.1219111903712327
  0.6221796685293933  0.6226170320200871  0.1250616842681947
  0.6264330871886237  0.8770828358709372  0.1256274705050329
  0.8773175963870460  0.3767011443181524  0.1236406817136828
  0.6218269839033137  0.3745302905209617  0.1249698519745807
  0.3741701689564053  0.6238879744683856  0.1222749621962826
  0.3725870278678690  0.8735071386352101  0.1250313780187547
  0.8734915390282679  0.1245683644315036  0.1228072044367232
  0.6255212530767643  0.1258054672837745  0.1260213810053793
  0.6218148631768603  0.1252946271809933  0.3718119689353495
  0.3763308377987503  0.1243444421685379  0.3763784098382598
  0.3719090045334197  0.1201854902297701  0.6251665637401689
  0.1252374515399932  0.1246207326559792  0.1232019720345200
  0.1240588200830707  0.3771682811052862  0.1224677522034731
  0.1251149298792081  0.3758841451903133  0.3739289076122743
  0.1245586577703278  0.3756536279507087  0.6242639413712869
  0.1271229757714746  0.6277589517003568  0.3732835094549602
  0.1270960864099505  0.6281822705020876  0.6267468835703485
  0.8722730845518757  0.1233975525882189  0.8779590699376993
  0.6264283016804314  0.1246441567596164  0.8787749169111072
  0.3726690561268430  0.1207184078194927  0.8733679157550390
  0.1251084855547895  0.3786470338419654  0.8784553277999705
  0.1263174316451920  0.6249641664693467  0.8753700363631628
  0.1282942057085690  0.8744551584268544  0.3758646896280503
  0.1302342970763753  0.8755147636592364  0.6258403285891356
  0.1288381489347566  0.8758995386817406  0.8719717711797094
  0.0038153358374085 -0.0000170011211457 -0.0007807461493103
 -0.0011266021696180  0.0024460039985998  0.7471115296346819
 -0.0020882421668031  0.7542189586334641  0.7490192151631531
  0.0042265720889376  0.7528744992733630  0.0031985856565987
  0.7463286441273924  0.7488086673265133 -0.0031969030925568
  0.7507217891179185 -0.0003034844819271  0.7459257758514030
 -0.0012051253761432  0.0029543186782678  0.5014369311760353
 -0.0018636460600896  0.7520846665411800  0.4998615766191201
  0.7535876880002119  0.0028674297867561  0.5029628447928455
 -0.0007424345675028  0.5027550593755268  0.4978318049823157
  0.0003965210171767  0.5004349665642539  0.7488790892481534
  0.7473756489418041  0.5018994383325928 -0.0014740688570187
  0.5016647671143180  0.7510436956090489 -0.0028228731022885
  0.5022581020508055  0.0006986699726714  0.5020384378706493
  0.5041336423688595 -0.0014093201458381  0.7509481339899065
  0.4981330992978993 -0.0008457194272052  0.0000688081617898
  0.0028313602824357  0.0012341237843447  0.2514459331225520
  0.0017510081039572  0.7502028679886642  0.2474984318581011
  0.7524458860218918  0.0024273108047202  0.2533164946931217
  0.0013463830129378  0.5043446805776579  0.2504928095352847
  0.4964845404949765  0.0003819113216111  0.2474595069489809
  0.0007588223188809  0.2468522649575060  0.2525639997130565
  0.0000723906976128  0.2442791544812893  0.4999255948190511
  0.0010611371125702  0.2451949292055552  0.7487986296887184
  0.0026795229731588  0.2473365224959322 -0.0019444025268301
  0.7492583044547214  0.2522552761477133  0.0005755920882161
  0.4943270988411609  0.2483182777990308  0.0028028547053293
  0.2515825017209639  0.2483715253419059  0.0013795631597849
  0.2470299079823609  0.7503427541482836  0.0034184626885453
  0.2482087232655219  0.0019655874376778  0.2481433151339317
  0.2473462615158759  0.0014095999723512  0.4991470330790873
  0.2474378373232341  0.0021333544841259  0.7499531037403790
  0.6238080713488040  0.3729021951439438  0.3734956061466683
  0.3739287687500285  0.6256442531425912  0.3723722712731281
  0.4978635622574545  0.2510715003770734  0.2487008482311206
  0.2490625803489764  0.7491719729389564  0.2478613041902419
  0.2504216889828371  0.7499475926071334  0.7509129301559656
  0.8763285586564400  0.8753125500510580  0.6251871280380277
  0.6229867322878125  0.6237409934534807  0.8765250974996116
  0.6258858235138400  0.8771541132328911  0.8761536139972261
  0.8758549149343337  0.6259492499165376  0.3738565779547466
  0.3748932340172583  0.3758465404061355  0.1245263813511811
  0.8749056552916656  0.1253855321333054  0.3743471286467797
  0.3741403336320747  0.1238261835265868  0.1248842517469565
  0.8759189999404017  0.1257826571199436  0.6258355603264077
  0.6246178725840499  0.1246079853940369  0.6251058769869974
  0.1272862389100875  0.1230827558513909  0.3754482022559972
  0.1272726583988377  0.1216665395474010  0.6249609468347371
  0.1268765144265395  0.6241097951284870  0.1237712925158240
  0.1269760619104048  0.1220995907373310  0.8751000304391185
  0.1271915409751710  0.8757668515822844  0.1248537772665899
  0.7485479112378888 -0.0011634901140538 -0.0012783949366281
  0.0014638040418108  0.5022472081384816  0.0015434293825023
  0.4986911196809015  0.4994408341825797  0.0013888296966563
  0.2501106089655126  0.5001566459488833  0.0031954585246847
  0.2487600189593443  0.0003190290449580  0.0013410541287269
 
  0.00000000E+00  0.00000000E+00  0.00000000E+00
  0.00000000E+00  0.00000000E+00  0.00000000E+00
  0.00000000E+00  0.00000000E+00  0.00000000E+00
  0.00000000E+00  0.00000000E+00  0.00000000E+00
  0.00000000E+00  0.00000000E+00  0.00000000E+00
  0.00000000E+00  0.00000000E+00  0.00000000E+00
  0.00000000E+00  0.00000000E+00  0.00000000E+00
  0.00000000E+00  0.00000000E+00  0.00000000E+00
  0.00000000E+00  0.00000000E+00  0.00000000E+00
  0.00000000E+00  0.00000000E+00  0.00000000E+00
  0.00000000E+00  0.00000000E+00  0.00000000E+00
  0.00000000E+00  0.00000000E+00  0.00000000E+00
  0.00000000E+00  0.00000000E+00  0.00000000E+00
  0.00000000E+00  0.00000000E+00  0.00000000E+00
  0.00000000E+00  0.00000000E+00  0.00000000E+00
  0.00000000E+00  0.00000000E+00  0.00000000E+00
  0.00000000E+00  0.00000000E+00  0.00000000E+00
  0.00000000E+00  0.00000000E+00  0.00000000E+00
  0.00000000E+00  0.00000000E+00  0.00000000E+00
  0.00000000E+00  0.00000000E+00  0.00000000E+00
  0.00000000E+00  0.00000000E+00  0.00000000E+00
  0.00000000E+00  0.00000000E+00  0.00000000E+00
  0.00000000E+00  0.00000000E+00  0.00000000E+00
  0.00000000E+00  0.00000000E+00  0.00000000E+00
  0.00000000E+00  0.00000000E+00  0.00000000E+00
  0.00000000E+00  0.00000000E+00  0.00000000E+00
  0.00000000E+00  0.00000000E+00  0.00000000E+00
  0.00000000E+00  0.00000000E+00  0.00000000E+00
  0.00000000E+00  0.00000000E+00  0.00000000E+00
  0.00000000E+00  0.00000000E+00  0.00000000E+00
  0.00000000E+00  0.00000000E+00  0.00000000E+00
  0.00000000E+00  0.00000000E+00  0.00000000E+00
  0.00000000E+00  0.00000000E+00  0.00000000E+00
  0.00000000E+00  0.00000000E+00  0.00000000E+00
  0.00000000E+00  0.00000000E+00  0.00000000E+00
  0.00000000E+00  0.00000000E+00  0.00000000E+00
  0.00000000E+00  0.00000000E+00  0.00000000E+00
  0.00000000E+00  0.00000000E+00  0.00000000E+00
  0.00000000E+00  0.00000000E+00  0.00000000E+00
  0.00000000E+00  0.00000000E+00  0.00000000E+00
  0.00000000E+00  0.00000000E+00  0.00000000E+00
  0.00000000E+00  0.00000000E+00  0.00000000E+00
  0.00000000E+00  0.00000000E+00  0.00000000E+00
  0.00000000E+00  0.00000000E+00  0.00000000E+00
  0.00000000E+00  0.00000000E+00  0.00000000E+00
  0.00000000E+00  0.00000000E+00  0.00000000E+00
  0.00000000E+00  0.00000000E+00  0.00000000E+00
  0.00000000E+00  0.00000000E+00  0.00000000E+00
  0.00000000E+00  0.00000000E+00  0.00000000E+00
  0.00000000E+00  0.00000000E+00  0.00000000E+00
  0.00000000E+00  0.00000000E+00  0.00000000E+00
  0.00000000E+00  0.00000000E+00  0.00000000E+00
  0.00000000E+00  0.00000000E+00  0.00000000E+00
  0.00000000E+00  0.00000000E+00  0.00000000E+00
  0.00000000E+00  0.00000000E+00  0.00000000E+00
  0.00000000E+00  0.00000000E+00  0.00000000E+00
  0.00000000E+00  0.00000000E+00  0.00000000E+00
  0.00000000E+00  0.00000000E+00  0.00000000E+00
  0.00000000E+00  0.00000000E+00  0.00000000E+00
  0.00000000E+00  0.00000000E+00  0.00000000E+00
  0.00000000E+00  0.00000000E+00  0.00000000E+00
  0.00000000E+00  0.00000000E+00  0.00000000E+00
  0.00000000E+00  0.00000000E+00  0.00000000E+00
  0.00000000E+00  0.00000000E+00  0.00000000E+00
  0.00000000E+00  0.00000000E+00  0.00000000E+00
  0.00000000E+00  0.00000000E+00  0.00000000E+00
  0.00000000E+00  0.00000000E+00  0.00000000E+00
  0.00000000E+00  0.00000000E+00  0.00000000E+00
  0.00000000E+00  0.00000000E+00  0.00000000E+00
  0.00000000E+00  0.00000000E+00  0.00000000E+00
  0.00000000E+00  0.00000000E+00  0.00000000E+00
  0.00000000E+00  0.00000000E+00  0.00000000E+00
  0.00000000E+00  0.00000000E+00  0.00000000E+00
  0.00000000E+00  0.00000000E+00  0.00000000E+00
  0.00000000E+00  0.00000000E+00  0.00000000E+00
  0.00000000E+00  0.00000000E+00  0.00000000E+00
  0.00000000E+00  0.00000000E+00  0.00000000E+00
  0.00000000E+00  0.00000000E+00  0.00000000E+00
  0.00000000E+00  0.00000000E+00  0.00000000E+00
  0.00000000E+00  0.00000000E+00  0.00000000E+00
  0.00000000E+00  0.00000000E+00  0.00000000E+00
  0.00000000E+00  0.00000000E+00  0.00000000E+00
  0.00000000E+00  0.00000000E+00  0.00000000E+00
  0.00000000E+00  0.00000000E+00  0.00000000E+00
  0.00000000E+00  0.00000000E+00  0.00000000E+00
  0.00000000E+00  0.00000000E+00  0.00000000E+00
  0.00000000E+00  0.00000000E+00  0.00000000E+00
  0.00000000E+00  0.00000000E+00  0.00000000E+00
  0.00000000E+00  0.00000000E+00  0.00000000E+00
  0.00000000E+00  0.00000000E+00  0.00000000E+00
  0.00000000E+00  0.00000000E+00  0.00000000E+00
  0.00000000E+00  0.00000000E+00  0.00000000E+00
  0.00000000E+00  0.00000000E+00  0.00000000E+00
  0.00000000E+00  0.00000000E+00  0.00000000E+00
  0.00000000E+00  0.00000000E+00  0.00000000E+00
  0.00000000E+00  0.00000000E+00  0.00000000E+00
  0.00000000E+00  0.00000000E+00  0.00000000E+00
  0.00000000E+00  0.00000000E+00  0.00000000E+00
  0.00000000E+00  0.00000000E+00  0.00000000E+00
  0.00000000E+00  0.00000000E+00  0.00000000E+00
  0.00000000E+00  0.00000000E+00  0.00000000E+00
  0.00000000E+00  0.00000000E+00  0.00000000E+00
  0.00000000E+00  0.00000000E+00  0.00000000E+00
  0.00000000E+00  0.00000000E+00  0.00000000E+00
  0.00000000E+00  0.00000000E+00  0.00000000E+00
  0.00000000E+00  0.00000000E+00  0.00000000E+00
  0.00000000E+00  0.00000000E+00  0.00000000E+00
  0.00000000E+00  0.00000000E+00  0.00000000E+00
  0.00000000E+00  0.00000000E+00  0.00000000E+00
  0.00000000E+00  0.00000000E+00  0.00000000E+00
  0.00000000E+00  0.00000000E+00  0.00000000E+00
  0.00000000E+00  0.00000000E+00  0.00000000E+00
  0.00000000E+00  0.00000000E+00  0.00000000E+00
  0.00000000E+00  0.00000000E+00  0.00000000E+00
  0.00000000E+00  0.00000000E+00  0.00000000E+00
  0.00000000E+00  0.00000000E+00  0.00000000E+00
  0.00000000E+00  0.00000000E+00  0.00000000E+00
  0.00000000E+00  0.00000000E+00  0.00000000E+00
  0.00000000E+00  0.00000000E+00  0.00000000E+00
  0.00000000E+00  0.00000000E+00  0.00000000E+00
  0.00000000E+00  0.00000000E+00  0.00000000E+00
  0.00000000E+00  0.00000000E+00  0.00000000E+00
  0.00000000E+00  0.00000000E+00  0.00000000E+00
  0.00000000E+00  0.00000000E+00  0.00000000E+00
  0.00000000E+00  0.00000000E+00  0.00000000E+00
  0.00000000E+00  0.00000000E+00  0.00000000E+00
  0.00000000E+00  0.00000000E+00  0.00000000E+00
  0.00000000E+00  0.00000000E+00  0.00000000E+00
