#BCC aalvarado POSCAR generator         
    12.76000000000000     
     1.0009131671938132   -0.0000085422173798   -0.0000819922661359
    -0.0000085522297914    1.0011193226647661   -0.0002228695463101
    -0.0000819478573247   -0.0002228072797044    1.0013826206154692
   Ta   W 
    25   103
Direct
  0.6263591425359297  0.6237056923688679  0.3766815802143691
  0.3735258688700273  0.3728338109332981  0.3752029514124068
  0.3735955795647874  0.3754484938706111  0.6241396392418012
  0.3741513141623670  0.6248428983905518  0.6257236883963331
  0.7494003670489939  0.7487676304705021  0.7529819758703633
  0.7489654138684780  0.4997434289593183  0.7523589644200684
  0.7511349094169778  0.7510280792558536  0.2500584775805139
  0.4989333476457166  0.4984008975000484  0.2485801025512261
  0.4979373340511347  0.7519186483392797  0.2497388494523744
  0.4985329395216153  0.2505108509733553  0.7514968558563899
  0.2495054551580653  0.7505869135352506  0.2496700627861828
  0.8762065907510453  0.8760460154776559  0.6244871567884996
  0.8772434040344006  0.6245156417267338  0.6235549553043219
  0.6244272114252050  0.8765680410969519  0.6244442452591603
  0.8762185436119171  0.3738851419912551  0.6243771399958983
  0.3741938190250943  0.6254402347232549  0.8745978915181510
  0.3744473133036412  0.8755283864853530  0.8752939209403516
  0.8764149524290625  0.8763728504467829  0.1240805426796603
  0.6263961414770045  0.6235915607213207  0.1226748764836209
  0.8755548940838630  0.1255786573886473  0.3742231721459537
  0.6254493358623440  0.1241154287881648  0.6244499471930234
  0.1253641794995129  0.6251732716537880  0.6250153622623514
  0.6261017631342547  0.1244944193999872  0.8766115057368487
  0.1249700735920014  0.6245267927025383  0.8756357006265233
  0.1251264989993712  0.8759790554331248  0.6247576573487471
  0.1250572574876989  0.8759085279265771  0.8750370850440817
 -0.0008701699630900  0.7514755906105269  0.7527632903454325
  0.7520882729491644  0.0000240349885474  0.7520074008957046
 -0.0004031710267337  0.4986310396954929  0.0019617145365649
  0.5000087776193756  0.4981613473812014  0.0003388185418527
  0.0002692179342485  0.2499254968088627  0.0001588637039147
  0.2492515046980279  0.0017900363327406  0.0009558222047476
  0.5010928925731882  0.4997397281302610  0.4995016223643339
  0.6234819368081430  0.6253650915036131  0.6241622226905359
  0.6257688619684167  0.3734227931175256  0.3748780924039339
  0.6251227602075313  0.3741379953032864  0.6240638247776897
  0.3736324121342360  0.6243877854433197  0.3770837909266306
  0.7502069532294972  0.7500119652398303  0.4985175577417419
  0.7501445123972310  0.4983334179721861  0.4993309960859924
  0.5020472925178900  0.4988155507973936  0.7511594840432110
  0.4989385260009486  0.7514394962966983  0.4991471736411491
  0.5015222299262886  0.7503154314030354  0.7500505626470919
  0.7521418533353257  0.4977943426153859  0.2494163793920985
  0.7497243565741444  0.2502109434759714  0.2488700475272630
  0.5004505741718253  0.2486804394080239  0.2489467938262987
  0.7500273262041072  0.2503491858218320  0.4984407035123793
  0.5002052206009251  0.2485276617420451  0.4990833265350633
  0.2490213323966595  0.2488192149186780  0.2488130083482548
  0.2481258638941559  0.2479325713194759  0.4993696230832437
  0.2483092279928871  0.5001015088366813  0.2486980736220315
  0.2479860583537903  0.4992278339792292  0.4979492193556531
  0.7512270436519346  0.2507953222098224  0.7513817004943756
  0.2487433993216685  0.2486385350480121  0.7510789150208587
  0.2489922822350747  0.4967955274004841  0.7512823680007003
  0.2504073805953009  0.7515878317748966  0.4967925407890568
  0.2499331557704349  0.7524921387937064  0.7500662429835444
  0.8759015654590542  0.8762891212459195  0.8762716479588265
  0.8767061562148522  0.6246455464818448  0.8769915557629047
  0.6235189823551359  0.6246547430160051  0.8766354671514387
  0.6240143915459283  0.8760002843599937  0.8756208950952964
  0.8762533930890359  0.8763757488217976  0.3746661190218787
  0.8763215187159340  0.6240057345446529  0.3747880657738136
  0.6246358496163921  0.8769003601647603  0.3761580979746033
  0.8755408263382597  0.3743418121134711  0.3742476479954075
  0.8760848951430181  0.3734915981414262  0.8764620817679586
  0.6251388298713961  0.3742507956228829  0.8772322377566505
  0.3735846072929824  0.3752090822345850  0.8760306233492041
  0.3743363510250062  0.8775597585355003  0.3757798501312765
  0.3747192242695858  0.8753309274095943  0.6250892999254299
  0.8765385399912604  0.6240435352154643  0.1246893338025775
  0.6252949880974199  0.8773949457948639  0.1237981825040049
  0.8756865859994756  0.3745027271394244  0.1250241620544727
  0.6260199687699113  0.3731949205761379  0.1245739758300483
  0.3736458839709398  0.3729735090354544  0.1244796275507312
  0.3735958330882388  0.6241143593384149  0.1225356561991257
  0.3743885943420611  0.8776667374879679  0.1237796315076579
  0.8753705700442510  0.1255754468473655  0.1250180375481160
  0.6245384688450065  0.1255045274361205  0.1253573095935466
  0.6251561691518117  0.1252103706828753  0.3744679895967098
  0.3745914603412683  0.1252796379240410  0.1255181186149119
  0.3746060185587441  0.1247255493224040  0.3743814614570545
  0.8757308454306572  0.1255119166763561  0.6248523997310612
  0.3736683685013216  0.1248204674182872  0.6241221467015164
  0.1254486579454943  0.1256441998117539  0.1247637600976369
  0.1250822888145150  0.1252693831416505  0.3747746467491382
  0.1244509586220118  0.3743233880416345  0.1250288248427972
  0.1246411762704507  0.3745618050470391  0.3741026239020617
  0.1253088581763526  0.1250455313283326  0.6252783879471363
  0.1247377121356407  0.3740965755810026  0.6250600697650086
  0.1240545988922472  0.6238666027877501  0.1246284198316641
  0.1237822274551498  0.6241815751434443  0.3747901965482892
  0.8759397844042534  0.1252384743588628  0.8755378944756684
  0.3735401017136555  0.1243483343142081  0.8762766455743464
  0.1245668117104069  0.1255476890763824  0.8751679930702764
  0.1245293747830192  0.3739867819445983  0.8758210764961969
  0.1242928333021165  0.8763411682561468  0.1246160757434345
  0.1249504083493047  0.8761055460077951  0.3751887511762392
  0.0008821195747537  0.0012907342026915 -0.0004236790868771
  0.0008617467569048  0.0024700102963597  0.7517508516057483
  0.0001131854721888  0.7499770440547571  0.0009736724751055
  0.7506620011910858  0.7499819400590270 -0.0006599891389394
  0.7503395157754743  0.0008931445490290  0.0007897646249871
  0.0016089532508912  0.0014955240378722  0.4988942306864024
  0.0006208572892255  0.7502134652792272  0.4962100838646542
  0.7500070822928662  0.0009057232580899  0.4979800200330581
  0.0006805711226894  0.4986521217758025  0.4966384166076731
 -0.0002588369838844  0.4971428216834795  0.7521445483174688
  0.7512758947465042  0.4982816855910969 -0.0002300297387999
  0.5005579858677266  0.7509378578682580  0.0007885745885441
  0.4980348075107914  0.0003268301857656  0.4977130519169519
  0.4978876607661633  0.0007201760169926  0.7501711610870310
  0.4996998280706115  0.0006698251159598  0.0021283805604568
  0.0017911652772473  0.0008939063500229  0.2491865272297837
  0.0012257662376520  0.7491596987785061  0.2496559822634907
  0.7487307731545677  0.0011199982848502  0.2492514245259131
  0.0002190872507020  0.4994083170114363  0.2492316026252235
  0.4994881728084684  0.0009475983787475  0.2497604810416899
  0.0006291140734967  0.2509506996838040  0.2487193345857245
  0.0015151326716120  0.2499011535711651  0.4996373542046392
  0.0012259153180093  0.2486232595698177  0.7511698887669420
  0.7511844703856465  0.2503541940977386  0.0017945782658077
  0.4993277137657285  0.2501698986295731  0.0011993621662754
  0.2494913730076239  0.2497009108841323  0.0004620492065443
  0.2494242465548543  0.4976990371183512  0.0017747533816102
  0.2489244773358407  0.7510533206528006  0.0029022797833876
  0.2501711701680485  0.0005624373835010  0.2497334912636369
  0.2507254370702190  0.0013902979059685  0.4987572665572884
  0.2492263979396164  0.0025339203691269  0.7501430900018902
 
  0.00000000E+00  0.00000000E+00  0.00000000E+00
  0.00000000E+00  0.00000000E+00  0.00000000E+00
  0.00000000E+00  0.00000000E+00  0.00000000E+00
  0.00000000E+00  0.00000000E+00  0.00000000E+00
  0.00000000E+00  0.00000000E+00  0.00000000E+00
  0.00000000E+00  0.00000000E+00  0.00000000E+00
  0.00000000E+00  0.00000000E+00  0.00000000E+00
  0.00000000E+00  0.00000000E+00  0.00000000E+00
  0.00000000E+00  0.00000000E+00  0.00000000E+00
  0.00000000E+00  0.00000000E+00  0.00000000E+00
  0.00000000E+00  0.00000000E+00  0.00000000E+00
  0.00000000E+00  0.00000000E+00  0.00000000E+00
  0.00000000E+00  0.00000000E+00  0.00000000E+00
  0.00000000E+00  0.00000000E+00  0.00000000E+00
  0.00000000E+00  0.00000000E+00  0.00000000E+00
  0.00000000E+00  0.00000000E+00  0.00000000E+00
  0.00000000E+00  0.00000000E+00  0.00000000E+00
  0.00000000E+00  0.00000000E+00  0.00000000E+00
  0.00000000E+00  0.00000000E+00  0.00000000E+00
  0.00000000E+00  0.00000000E+00  0.00000000E+00
  0.00000000E+00  0.00000000E+00  0.00000000E+00
  0.00000000E+00  0.00000000E+00  0.00000000E+00
  0.00000000E+00  0.00000000E+00  0.00000000E+00
  0.00000000E+00  0.00000000E+00  0.00000000E+00
  0.00000000E+00  0.00000000E+00  0.00000000E+00
  0.00000000E+00  0.00000000E+00  0.00000000E+00
  0.00000000E+00  0.00000000E+00  0.00000000E+00
  0.00000000E+00  0.00000000E+00  0.00000000E+00
  0.00000000E+00  0.00000000E+00  0.00000000E+00
  0.00000000E+00  0.00000000E+00  0.00000000E+00
  0.00000000E+00  0.00000000E+00  0.00000000E+00
  0.00000000E+00  0.00000000E+00  0.00000000E+00
  0.00000000E+00  0.00000000E+00  0.00000000E+00
  0.00000000E+00  0.00000000E+00  0.00000000E+00
  0.00000000E+00  0.00000000E+00  0.00000000E+00
  0.00000000E+00  0.00000000E+00  0.00000000E+00
  0.00000000E+00  0.00000000E+00  0.00000000E+00
  0.00000000E+00  0.00000000E+00  0.00000000E+00
  0.00000000E+00  0.00000000E+00  0.00000000E+00
  0.00000000E+00  0.00000000E+00  0.00000000E+00
  0.00000000E+00  0.00000000E+00  0.00000000E+00
  0.00000000E+00  0.00000000E+00  0.00000000E+00
  0.00000000E+00  0.00000000E+00  0.00000000E+00
  0.00000000E+00  0.00000000E+00  0.00000000E+00
  0.00000000E+00  0.00000000E+00  0.00000000E+00
  0.00000000E+00  0.00000000E+00  0.00000000E+00
  0.00000000E+00  0.00000000E+00  0.00000000E+00
  0.00000000E+00  0.00000000E+00  0.00000000E+00
  0.00000000E+00  0.00000000E+00  0.00000000E+00
  0.00000000E+00  0.00000000E+00  0.00000000E+00
  0.00000000E+00  0.00000000E+00  0.00000000E+00
  0.00000000E+00  0.00000000E+00  0.00000000E+00
  0.00000000E+00  0.00000000E+00  0.00000000E+00
  0.00000000E+00  0.00000000E+00  0.00000000E+00
  0.00000000E+00  0.00000000E+00  0.00000000E+00
  0.00000000E+00  0.00000000E+00  0.00000000E+00
  0.00000000E+00  0.00000000E+00  0.00000000E+00
  0.00000000E+00  0.00000000E+00  0.00000000E+00
  0.00000000E+00  0.00000000E+00  0.00000000E+00
  0.00000000E+00  0.00000000E+00  0.00000000E+00
  0.00000000E+00  0.00000000E+00  0.00000000E+00
  0.00000000E+00  0.00000000E+00  0.00000000E+00
  0.00000000E+00  0.00000000E+00  0.00000000E+00
  0.00000000E+00  0.00000000E+00  0.00000000E+00
  0.00000000E+00  0.00000000E+00  0.00000000E+00
  0.00000000E+00  0.00000000E+00  0.00000000E+00
  0.00000000E+00  0.00000000E+00  0.00000000E+00
  0.00000000E+00  0.00000000E+00  0.00000000E+00
  0.00000000E+00  0.00000000E+00  0.00000000E+00
  0.00000000E+00  0.00000000E+00  0.00000000E+00
  0.00000000E+00  0.00000000E+00  0.00000000E+00
  0.00000000E+00  0.00000000E+00  0.00000000E+00
  0.00000000E+00  0.00000000E+00  0.00000000E+00
  0.00000000E+00  0.00000000E+00  0.00000000E+00
  0.00000000E+00  0.00000000E+00  0.00000000E+00
  0.00000000E+00  0.00000000E+00  0.00000000E+00
  0.00000000E+00  0.00000000E+00  0.00000000E+00
  0.00000000E+00  0.00000000E+00  0.00000000E+00
  0.00000000E+00  0.00000000E+00  0.00000000E+00
  0.00000000E+00  0.00000000E+00  0.00000000E+00
  0.00000000E+00  0.00000000E+00  0.00000000E+00
  0.00000000E+00  0.00000000E+00  0.00000000E+00
  0.00000000E+00  0.00000000E+00  0.00000000E+00
  0.00000000E+00  0.00000000E+00  0.00000000E+00
  0.00000000E+00  0.00000000E+00  0.00000000E+00
  0.00000000E+00  0.00000000E+00  0.00000000E+00
  0.00000000E+00  0.00000000E+00  0.00000000E+00
  0.00000000E+00  0.00000000E+00  0.00000000E+00
  0.00000000E+00  0.00000000E+00  0.00000000E+00
  0.00000000E+00  0.00000000E+00  0.00000000E+00
  0.00000000E+00  0.00000000E+00  0.00000000E+00
  0.00000000E+00  0.00000000E+00  0.00000000E+00
  0.00000000E+00  0.00000000E+00  0.00000000E+00
  0.00000000E+00  0.00000000E+00  0.00000000E+00
  0.00000000E+00  0.00000000E+00  0.00000000E+00
  0.00000000E+00  0.00000000E+00  0.00000000E+00
  0.00000000E+00  0.00000000E+00  0.00000000E+00
  0.00000000E+00  0.00000000E+00  0.00000000E+00
  0.00000000E+00  0.00000000E+00  0.00000000E+00
  0.00000000E+00  0.00000000E+00  0.00000000E+00
  0.00000000E+00  0.00000000E+00  0.00000000E+00
  0.00000000E+00  0.00000000E+00  0.00000000E+00
  0.00000000E+00  0.00000000E+00  0.00000000E+00
  0.00000000E+00  0.00000000E+00  0.00000000E+00
  0.00000000E+00  0.00000000E+00  0.00000000E+00
  0.00000000E+00  0.00000000E+00  0.00000000E+00
  0.00000000E+00  0.00000000E+00  0.00000000E+00
  0.00000000E+00  0.00000000E+00  0.00000000E+00
  0.00000000E+00  0.00000000E+00  0.00000000E+00
  0.00000000E+00  0.00000000E+00  0.00000000E+00
  0.00000000E+00  0.00000000E+00  0.00000000E+00
  0.00000000E+00  0.00000000E+00  0.00000000E+00
  0.00000000E+00  0.00000000E+00  0.00000000E+00
  0.00000000E+00  0.00000000E+00  0.00000000E+00
  0.00000000E+00  0.00000000E+00  0.00000000E+00
  0.00000000E+00  0.00000000E+00  0.00000000E+00
  0.00000000E+00  0.00000000E+00  0.00000000E+00
  0.00000000E+00  0.00000000E+00  0.00000000E+00
  0.00000000E+00  0.00000000E+00  0.00000000E+00
  0.00000000E+00  0.00000000E+00  0.00000000E+00
  0.00000000E+00  0.00000000E+00  0.00000000E+00
  0.00000000E+00  0.00000000E+00  0.00000000E+00
  0.00000000E+00  0.00000000E+00  0.00000000E+00
  0.00000000E+00  0.00000000E+00  0.00000000E+00
  0.00000000E+00  0.00000000E+00  0.00000000E+00
  0.00000000E+00  0.00000000E+00  0.00000000E+00
  0.00000000E+00  0.00000000E+00  0.00000000E+00
  0.00000000E+00  0.00000000E+00  0.00000000E+00
