#generated using str2pos                
    1.000000000000000     
    12.8713112824830986    0.0021249952635522    0.0006953304428867
     0.0021252386314782   12.8695231473067064   -0.0059058762906195
     0.0006952631589711   -0.0059079043835209   12.8747346343917304
   Ta   W 
    51    77
Direct
  0.1257196713110842  0.1255843926187834  0.1247951197431142
  0.3763485947995048  0.1266122287327524  0.1256150244222158
  0.2479698233068879  0.4982931875134965  0.2496489893990521
  0.6237041648699788  0.3740089258188820  0.1262127436846767
  0.2485288684856665  0.7487853449133587  0.2497179617989945
  0.3771571647041089  0.6238656843277937  0.1234927483492225
  0.0009968334733775  0.7480827092929531  0.2509478182939319
  0.8736852422309552  0.6230090459865539  0.1260046509555207
  0.2507485281146929 -0.0011309173119124  0.2512423624623920
  0.1264520094234231  0.8759710856400702  0.1218808832155234
  0.6248303401409542  0.8728148570521471  0.1272975849701772
 -0.0002135424458314 -0.0005034808112030  0.2492853913553033
  0.1247506186644825  0.1278664401344649  0.3770943327219993
  0.6260690659845788  0.1267926425041015  0.3740036827863941
  0.8739046941791839  0.1263649048990595  0.3757480115359902
  0.7494790585709026  0.5001104341428401  0.4971091117139423
  0.6237666433921117  0.3738670216438453  0.3732516529252254
  0.3765341843604352  0.6238289263499311  0.3766237305473590
  0.7505853610563733  0.7487543467572816  0.5003239083529152
  0.5007778918095291  0.0020143339095341  0.5015326709490476
  0.3765686894505151  0.8730071146594661  0.3770795114402073
  0.6250690672664841  0.8753237160792102  0.3723275995350444
  0.8735316164299795  0.8763249035687145  0.3754485019601804
  0.1257357524580596  0.1266683469901626  0.6239711050026616
  0.5016184636936939  0.2522444485987422  0.7499250849755723
  0.3730947919314945  0.1255816384726638  0.6253006402491216
  0.8749553475224505  0.1280797430029465  0.6227331905224560
  0.1256152937391619  0.3753671211730201  0.6241215113563184
  0.8763759394124579  0.3739232561469483  0.6254298364612668
  0.1269330394617764  0.6235163154748211  0.6244730324520766
  0.3746934561595007  0.6245746098993060  0.6252768035830852
  0.7485128396571686  0.7537070162804747  0.7483577242726638
  0.6214275981580289  0.6234911115948166  0.6262847229231224
  0.0014105104798405  0.7532795332326625  0.7489126301334852
  0.8775689653469960  0.6217854616699584  0.6251166831208220
  0.3735535600909813  0.8738230546789797  0.6266326768800651
  0.7483107357445505  0.0007990151982087  0.7507844099561598
 -0.0006422578154806 -0.0018596630968631  0.7496109594832802
  0.2500968621490348  0.2550917083470677  0.0003446347506718
  0.1265919159905288  0.1249305770821921  0.8733684466935986
  0.3740357649985546  0.1247951199041424  0.8743288227902891
 -0.0006443874856179  0.2513496189096538  0.0014783829949278
  0.7477657013635874  0.4976138892698149  0.0017191200564352
  0.8745832105048623  0.3752932958907594  0.8730630113519388
  0.1277540192530650  0.6230771912065977  0.8743267541151496
  0.6223153120289245  0.6240866417051882  0.8752335207469476
  0.0019739018624994  0.7502514127282065  0.0014072169466279
  0.8750018210839978  0.6225477094623791  0.8758436797906985
  0.5016952849413191 -0.0007526301863954 -0.0012631803299119
  0.7487047682197110  0.0025135708061812 -0.0005063658938650
  0.8745961789832976  0.8748451106820662  0.8776300695747463
  0.2509932887492606  0.2527661023992945  0.2510700938826611
  0.4987688703365276  0.2505124929735886  0.2499041238842151
  0.7510623323563709  0.2503900623470455  0.2481862316944002
  0.6249274462108421  0.1266975748610094  0.1264923208284568
 -0.0011252002892297  0.2530698115466383  0.2484223867758961
  0.8737189542931131  0.1266161376393658  0.1263823570496090
  0.1242517896635625  0.3759297618616358  0.1263513369183584
  0.4992976723804745  0.4990156732010506  0.2499356052112769
  0.3764868438370255  0.3755582775130124  0.1252176851423532
  0.7509495617806747  0.4997499014288601  0.2505655821998290
  0.0007936444372434  0.4990131678818239  0.2507787232870060
  0.8743038809006652  0.3750245011378587  0.1267529769677402
  0.1256085351560115  0.6227884857737896  0.1232829146938914
  0.5008110961123161  0.7478642834789344  0.2487481916427436
  0.7501770737707520  0.7475071004604736  0.2506928342841204
  0.6238667579920764  0.6247308234763173  0.1255886481334114
  0.4990903790851883  0.0011211065336612  0.2491058203755946
  0.3768865875212082  0.8735775199019957  0.1234369391336734
  0.7510853504705142  0.0013412317989125  0.2468942982694959
  0.8728509955872521  0.8745656584089666  0.1256834788020912
  0.2518337187280787  0.2522031118686560  0.4983084098776764
  0.4986840768172152  0.2508654016075145  0.5008976636362279
  0.3754429918224529  0.1270665905456512  0.3750226053293272
  0.7487009908560938  0.2518694649256688  0.5003640444911723
  0.0005825204853622  0.2525183493466759  0.4973753369490166
  0.2503904233931123  0.4979646805634664  0.4980961778960516
  0.1244728536987082  0.3746492141461044  0.3754447427395913
  0.4999589910757624  0.4975651569805711  0.5003061138226003
  0.3753503490244653  0.3747172199608575  0.3758668113797975
  0.0002457181534303  0.5001100777691360  0.4957196209356328
  0.8757918290011776  0.3742047800402129  0.3741340169571275
  0.2474040581882702  0.7496791925996737  0.4995661248760583
  0.1246666717413146  0.6230686801343196  0.3774612533301612
  0.5015257642890445  0.7495429479510467  0.5008077923176879
  0.6231193979865864  0.6242751873739777  0.3734815190835497
  0.0006260839382524  0.7500722852922228  0.4988958904261309
  0.8757593705961466  0.6236471962479582  0.3737060331598830
  0.2498480405778583 -0.0001856063476047  0.4993081070010109
  0.1248534168720490  0.8749128912728827  0.3782251402065595
  0.7484590790263268 -0.0001780501833789  0.5028112637110463
  0.0004812560968939 -0.0017267599064990  0.5007774161474675
  0.2522839324558116  0.2529808440001833  0.7503144487228290
  0.7466249256547444  0.2485882416842930  0.7508911284025126
  0.6254367899317947  0.1267320241121815  0.6240695800901670
 -0.0001361312953254  0.2496669717616405  0.7519556280183911
  0.2525128643011386  0.4988846750549821  0.7516386631857387
  0.4980570372871077  0.4973473469067276  0.7510284338038533
  0.3742298002136548  0.3759676775008618  0.6243858988693685
  0.7472604709973376  0.4976666803344156  0.7496828899006787
  0.6244104458832518  0.3749125500460816  0.6245970816766651
  0.0023478565589923  0.4991774783140103  0.7503395044662852
  0.2508380471688774  0.7506883815054437  0.7516907666005804
  0.4992914473287125  0.7507944204580177  0.7525933347074799
  0.2491611006002693 -0.0023586731190470  0.7503859670856093
  0.1274440719075221  0.8751474315602915  0.6236386988810541
  0.5019094116076019  0.0001850689954144  0.7508616405937937
  0.6221530091774522  0.8753789925593041  0.6246574250932363
  0.8759571747808587  0.8767137417711884  0.6222435534754436
  0.5008385507770949  0.2508216700454843 -0.0010344859267286
  0.7502548452914444  0.2484707119361527  0.0001792732675860
  0.6243990075407686  0.1272976149550945  0.8749480640691080
  0.8748826848793400  0.1275257488637493  0.8749994032475572
  0.2511091703843771  0.4991751412680907  0.0001509922993212
  0.1255725275916922  0.3769410667495783  0.8735438808291615
  0.4987691956489807  0.4992793502133525 -0.0007085105409886
  0.3753170282207861  0.3772265429818932  0.8747089946174382
  0.6242494669188468  0.3751470490695668  0.8755002011404737
  0.0019541778727480  0.4977214911864263  0.0026968506425355
  0.2516959959658278  0.7494553982643969 -0.0009732233725460
  0.4986262351324938  0.7500772118823864 -0.0005753470566079
  0.3751074650604831  0.6251016018349600  0.8752601039590139
  0.7485886786759705  0.7503244112935250  0.0012543905035449
  0.2522892313043945 -0.0018733879568456 -0.0006531234621811
  0.1286759397977650  0.8756384273085701  0.8754191725378914
  0.3744869483561340  0.8738305962586523  0.8737758911361898
  0.6221474721613843  0.8733728498670004  0.8761865564330594
 -0.0023493183746056  0.0010388901718000 -0.0003114794269541
 
  0.00000000E+00  0.00000000E+00  0.00000000E+00
  0.00000000E+00  0.00000000E+00  0.00000000E+00
  0.00000000E+00  0.00000000E+00  0.00000000E+00
  0.00000000E+00  0.00000000E+00  0.00000000E+00
  0.00000000E+00  0.00000000E+00  0.00000000E+00
  0.00000000E+00  0.00000000E+00  0.00000000E+00
  0.00000000E+00  0.00000000E+00  0.00000000E+00
  0.00000000E+00  0.00000000E+00  0.00000000E+00
  0.00000000E+00  0.00000000E+00  0.00000000E+00
  0.00000000E+00  0.00000000E+00  0.00000000E+00
  0.00000000E+00  0.00000000E+00  0.00000000E+00
  0.00000000E+00  0.00000000E+00  0.00000000E+00
  0.00000000E+00  0.00000000E+00  0.00000000E+00
  0.00000000E+00  0.00000000E+00  0.00000000E+00
  0.00000000E+00  0.00000000E+00  0.00000000E+00
  0.00000000E+00  0.00000000E+00  0.00000000E+00
  0.00000000E+00  0.00000000E+00  0.00000000E+00
  0.00000000E+00  0.00000000E+00  0.00000000E+00
  0.00000000E+00  0.00000000E+00  0.00000000E+00
  0.00000000E+00  0.00000000E+00  0.00000000E+00
  0.00000000E+00  0.00000000E+00  0.00000000E+00
  0.00000000E+00  0.00000000E+00  0.00000000E+00
  0.00000000E+00  0.00000000E+00  0.00000000E+00
  0.00000000E+00  0.00000000E+00  0.00000000E+00
  0.00000000E+00  0.00000000E+00  0.00000000E+00
  0.00000000E+00  0.00000000E+00  0.00000000E+00
  0.00000000E+00  0.00000000E+00  0.00000000E+00
  0.00000000E+00  0.00000000E+00  0.00000000E+00
  0.00000000E+00  0.00000000E+00  0.00000000E+00
  0.00000000E+00  0.00000000E+00  0.00000000E+00
  0.00000000E+00  0.00000000E+00  0.00000000E+00
  0.00000000E+00  0.00000000E+00  0.00000000E+00
  0.00000000E+00  0.00000000E+00  0.00000000E+00
  0.00000000E+00  0.00000000E+00  0.00000000E+00
  0.00000000E+00  0.00000000E+00  0.00000000E+00
  0.00000000E+00  0.00000000E+00  0.00000000E+00
  0.00000000E+00  0.00000000E+00  0.00000000E+00
  0.00000000E+00  0.00000000E+00  0.00000000E+00
  0.00000000E+00  0.00000000E+00  0.00000000E+00
  0.00000000E+00  0.00000000E+00  0.00000000E+00
  0.00000000E+00  0.00000000E+00  0.00000000E+00
  0.00000000E+00  0.00000000E+00  0.00000000E+00
  0.00000000E+00  0.00000000E+00  0.00000000E+00
  0.00000000E+00  0.00000000E+00  0.00000000E+00
  0.00000000E+00  0.00000000E+00  0.00000000E+00
  0.00000000E+00  0.00000000E+00  0.00000000E+00
  0.00000000E+00  0.00000000E+00  0.00000000E+00
  0.00000000E+00  0.00000000E+00  0.00000000E+00
  0.00000000E+00  0.00000000E+00  0.00000000E+00
  0.00000000E+00  0.00000000E+00  0.00000000E+00
  0.00000000E+00  0.00000000E+00  0.00000000E+00
  0.00000000E+00  0.00000000E+00  0.00000000E+00
  0.00000000E+00  0.00000000E+00  0.00000000E+00
  0.00000000E+00  0.00000000E+00  0.00000000E+00
  0.00000000E+00  0.00000000E+00  0.00000000E+00
  0.00000000E+00  0.00000000E+00  0.00000000E+00
  0.00000000E+00  0.00000000E+00  0.00000000E+00
  0.00000000E+00  0.00000000E+00  0.00000000E+00
  0.00000000E+00  0.00000000E+00  0.00000000E+00
  0.00000000E+00  0.00000000E+00  0.00000000E+00
  0.00000000E+00  0.00000000E+00  0.00000000E+00
  0.00000000E+00  0.00000000E+00  0.00000000E+00
  0.00000000E+00  0.00000000E+00  0.00000000E+00
  0.00000000E+00  0.00000000E+00  0.00000000E+00
  0.00000000E+00  0.00000000E+00  0.00000000E+00
  0.00000000E+00  0.00000000E+00  0.00000000E+00
  0.00000000E+00  0.00000000E+00  0.00000000E+00
  0.00000000E+00  0.00000000E+00  0.00000000E+00
  0.00000000E+00  0.00000000E+00  0.00000000E+00
  0.00000000E+00  0.00000000E+00  0.00000000E+00
  0.00000000E+00  0.00000000E+00  0.00000000E+00
  0.00000000E+00  0.00000000E+00  0.00000000E+00
  0.00000000E+00  0.00000000E+00  0.00000000E+00
  0.00000000E+00  0.00000000E+00  0.00000000E+00
  0.00000000E+00  0.00000000E+00  0.00000000E+00
  0.00000000E+00  0.00000000E+00  0.00000000E+00
  0.00000000E+00  0.00000000E+00  0.00000000E+00
  0.00000000E+00  0.00000000E+00  0.00000000E+00
  0.00000000E+00  0.00000000E+00  0.00000000E+00
  0.00000000E+00  0.00000000E+00  0.00000000E+00
  0.00000000E+00  0.00000000E+00  0.00000000E+00
  0.00000000E+00  0.00000000E+00  0.00000000E+00
  0.00000000E+00  0.00000000E+00  0.00000000E+00
  0.00000000E+00  0.00000000E+00  0.00000000E+00
  0.00000000E+00  0.00000000E+00  0.00000000E+00
  0.00000000E+00  0.00000000E+00  0.00000000E+00
  0.00000000E+00  0.00000000E+00  0.00000000E+00
  0.00000000E+00  0.00000000E+00  0.00000000E+00
  0.00000000E+00  0.00000000E+00  0.00000000E+00
  0.00000000E+00  0.00000000E+00  0.00000000E+00
  0.00000000E+00  0.00000000E+00  0.00000000E+00
  0.00000000E+00  0.00000000E+00  0.00000000E+00
  0.00000000E+00  0.00000000E+00  0.00000000E+00
  0.00000000E+00  0.00000000E+00  0.00000000E+00
  0.00000000E+00  0.00000000E+00  0.00000000E+00
  0.00000000E+00  0.00000000E+00  0.00000000E+00
  0.00000000E+00  0.00000000E+00  0.00000000E+00
  0.00000000E+00  0.00000000E+00  0.00000000E+00
  0.00000000E+00  0.00000000E+00  0.00000000E+00
  0.00000000E+00  0.00000000E+00  0.00000000E+00
  0.00000000E+00  0.00000000E+00  0.00000000E+00
  0.00000000E+00  0.00000000E+00  0.00000000E+00
  0.00000000E+00  0.00000000E+00  0.00000000E+00
  0.00000000E+00  0.00000000E+00  0.00000000E+00
  0.00000000E+00  0.00000000E+00  0.00000000E+00
  0.00000000E+00  0.00000000E+00  0.00000000E+00
  0.00000000E+00  0.00000000E+00  0.00000000E+00
  0.00000000E+00  0.00000000E+00  0.00000000E+00
  0.00000000E+00  0.00000000E+00  0.00000000E+00
  0.00000000E+00  0.00000000E+00  0.00000000E+00
  0.00000000E+00  0.00000000E+00  0.00000000E+00
  0.00000000E+00  0.00000000E+00  0.00000000E+00
  0.00000000E+00  0.00000000E+00  0.00000000E+00
  0.00000000E+00  0.00000000E+00  0.00000000E+00
  0.00000000E+00  0.00000000E+00  0.00000000E+00
  0.00000000E+00  0.00000000E+00  0.00000000E+00
  0.00000000E+00  0.00000000E+00  0.00000000E+00
  0.00000000E+00  0.00000000E+00  0.00000000E+00
  0.00000000E+00  0.00000000E+00  0.00000000E+00
  0.00000000E+00  0.00000000E+00  0.00000000E+00
  0.00000000E+00  0.00000000E+00  0.00000000E+00
  0.00000000E+00  0.00000000E+00  0.00000000E+00
  0.00000000E+00  0.00000000E+00  0.00000000E+00
  0.00000000E+00  0.00000000E+00  0.00000000E+00
  0.00000000E+00  0.00000000E+00  0.00000000E+00
  0.00000000E+00  0.00000000E+00  0.00000000E+00
  0.00000000E+00  0.00000000E+00  0.00000000E+00
  0.00000000E+00  0.00000000E+00  0.00000000E+00
