#generated using str2pos                
    1.000000000000000     
    12.7804051799635854    0.0022925284979970    0.0008223292431751
     0.0022931845552070   12.7780186354792882   -0.0003371171037748
     0.0008228058560588   -0.0003371936839461   12.7740091352673613
   Ta   W 
    26   102
Direct
  0.2513006575580125  0.2507182306545617  0.2508375917624475
  0.1235832945252746  0.1244327475990120  0.1241591948788306
  0.5003082372375138  0.2498966521987832  0.2499746930795724
  0.8750251313617726  0.1245672177104735  0.1250529339182155
  0.3750362257469674  0.6256122014748270  0.1250444530021002
  0.7495865642182132  0.7501692442825282  0.2504199024679836
  0.2504756929140620  0.2499027151839420  0.5004453190180370
  0.2498495252662703  0.4992835448750875  0.4989855904259379
  0.8744408653543284  0.3745909147869649  0.3752970223049999
  0.2499855383454377  0.7500551324644995  0.4995128202457748
  0.7499297114205741  0.7502871383601317  0.4996824000926515
  0.1243466884223721  0.8756027259805517  0.3742932190935560
  0.2500971365631258  0.2498439751085408  0.7497836279000619
  0.0002514828258083  0.5003117017276844  0.7508000059713023
  0.8733515601486209  0.3735531826212343  0.6235828915312616
  0.3768600321556207  0.6250789954209506  0.6268054780001546
  0.7502772623867610  0.7504610781038048  0.7494996068267356
  0.5013132265745115  0.0013294535440706  0.7487553090963691
  0.7501822134938599  0.0002321568725186  0.7498437087461516
  0.5004415468894685  0.2498970728695898  0.0001221903440503
  0.7499272180645624  0.4996420442847684  0.0002283759763455
 -0.0006453464971223  0.4999586396154266  0.0000647335661503
  0.3755074484103376  0.6252583297680250  0.8756403625348885
 -0.0013930390655603  0.7489751466567881  0.0009355720292760
  0.1259506086694235  0.8761739073724445  0.8742483708881633
  0.3740391461550542  0.8743176217147579  0.8763278208727466
  0.3741800110037500  0.1226402294212205  0.1246659645842308
  0.7486065287036963  0.2497529238737391  0.2502059434227830
  0.6266866829816126  0.1233481107601875  0.1254412988051246
  0.0005021103195475  0.2506711978079154  0.2506233451615383
  0.2495242231488966  0.4995576185730574  0.2504856669091937
  0.1250530810535555  0.3748065725735131  0.1248078649827875
  0.5005957798986127  0.4996572248929586  0.2511810169012239
  0.3744815926834085  0.3773550828346228  0.1243063457987891
  0.7492679269812074  0.5008273230467062  0.2492480445995585
  0.6256146655023401  0.3755930613394277  0.1256570253730382
  0.0004121400936439  0.5007364805557566  0.2494516052567047
  0.8748903075883111  0.3730480655247548  0.1267822519209431
  0.2501419429624753  0.7499778711724929  0.2503546341072765
  0.1266090916449406  0.6248872030000223  0.1267610491752851
  0.5009173647871923  0.7508729640134939  0.2507040378980778
  0.6233820264905220  0.6255028714098888  0.1255059317163026
 -0.0012248427321042  0.7490732000364638  0.2495844769057832
  0.8747162508814947  0.6252261695232657  0.1268938690617978
  0.2517714184124887 -0.0001214307653209  0.2501501395167324
  0.1257227046734616  0.8756466077706270  0.1257218082850689
  0.5003315565862632 -0.0001942453227642  0.2506306617299788
  0.3755322373137451  0.8745571657106458  0.1253826685829378
  0.7489266454278365 -0.0008770470111197  0.2504920417360604
  0.6241250141840115  0.8755832307340197  0.1250952913222127
 -0.0010382574952606 -0.0009190231357845  0.2512783997073383
  0.8741197998026879  0.8766208840357494  0.1253050547480067
  0.1235711609398868  0.1232985219937839  0.3749978432657938
  0.5006209639481847  0.2497699545256424  0.4999344252355101
  0.3763566628090514  0.1227265300207131  0.3758091298184145
  0.7486130378335538  0.2485078643376295  0.5001128739022427
  0.6257933091022688  0.1242982214230716  0.3757248607615596
  0.0005936648859793  0.2478800881842924  0.5002193774609806
  0.8743656829665907  0.1251757537737467  0.3747690978428090
  0.1226330141728820  0.3758557280085381  0.3738947155806670
  0.5008338498501040  0.4991733228535695  0.4994874958101431
  0.3770193251268091  0.3761504925019533  0.3750539640288005
  0.7481857250837531  0.5008590268267425  0.4996734440250067
  0.6261380029179695  0.3753079871982637  0.3759832544244286
  0.0008268896288321  0.5010956700549952  0.4999162804682557
  0.1236066283126245  0.6256798266342619  0.3735684923080001
  0.5009672891013992  0.7509491782632135  0.4988823966784295
  0.3764015220248998  0.6256105253116792  0.3734900567299478
  0.6240178597158550  0.6237298241296610  0.3750301075076286
 -0.0009256700005560  0.7501242432532909  0.5003650447402251
  0.8758559067575087  0.6235701822233162  0.3749586382959215
  0.2508150764297974  0.0006461328378351  0.5002721429626003
  0.5003514837489755  0.0003231155938574  0.4995217948222396
  0.3754064294344298  0.8758484510485361  0.3738981013920004
  0.7499710659661227  0.0003271179843125  0.4996995815966591
  0.6235030686686047  0.8763855895809040  0.3742455381473084
 -0.0008343048821067  0.0005325332208136  0.5006423545689418
  0.8761015509109981  0.8765133559280747  0.3748672275411039
  0.1235469575859991  0.1234034914644614  0.6250683851124661
  0.5001617418594254  0.2503730759961218  0.7501372967625426
  0.3758080558301772  0.1244172621236259  0.6240828173915436
  0.7494480905204578  0.2490773514277966  0.7502815583494310
  0.6253516837034199  0.1268721873999283  0.6231730956751297
  0.0005555608680919  0.2491836359522566  0.7503160254324889
  0.8756311429513440  0.1254820506002262  0.6241279742381595
  0.2489652695425569  0.4979088807290488  0.7501099306535993
  0.1232330486239688  0.3743862175495251  0.6252128297825597
  0.5015421794389330  0.4984782051921398  0.7496886113914247
  0.3778244074218929  0.3754123912419267  0.6258931738478167
  0.7492014085642195  0.5004541577947026  0.7508242650372674
  0.6252754514085743  0.3747338643923351  0.6248932287327748
  0.2484851820272120  0.7503317503307505  0.7484443471249141
  0.1246728860961476  0.6260895386212918  0.6251809560903925
  0.5026853119566229  0.7507789363361024  0.7494279446799084
  0.6238995003286482  0.6232514246108735  0.6245603899002186
 -0.0013954275182264  0.7494804319161952  0.7494736161538450
  0.8754565938867219  0.6243300592084865  0.6238329606149704
  0.2501699296202893  0.0021726510845555  0.7486737614405524
  0.1243089286343375  0.8760162776870815  0.6250564541011521
  0.3748175890522190  0.8751690589591626  0.6246189555879920
  0.6240938190072375  0.8754682540217394  0.6229699738889605
 -0.0008576278537135  0.0007712807520566  0.7485361964687467
  0.8770664179806741  0.8762399501567855  0.6239172620145605
  0.2509147512027771  0.2505617443975737 -0.0010428887212384
  0.1240389800773640  0.1244272647709445  0.8754070856857080
  0.3744585718758753  0.1244442604458721  0.8754533428985996
  0.7490941486294000  0.2505730484601408 -0.0009588723645676
  0.6261944866655321  0.1261609004532809  0.8753632792343630
 -0.0003531381056209  0.2510834669151904 -0.0015910791388519
  0.8755408006859074  0.1254148973878763  0.8756134712815496
  0.2486721595749154  0.4984056281648581  0.0006658854942482
  0.1257703377302938  0.3738411952536511  0.8760000522760097
  0.5016277607513313  0.4985166401257334  0.0002204749023045
  0.3752986419706336  0.3762152986770312  0.8751491956671620
  0.6248790286807077  0.3748560236070652  0.8734438554595712
  0.8739397386885983  0.3722314860894284  0.8738797331532476
  0.2484861755081950  0.7500014258389616  0.0020515646727286
  0.1272355716207496  0.6258965593156823  0.8747403594221198
  0.5021164606492111  0.7509524171061380  0.0015853170471562
  0.7499559461467981  0.7498975144768713  0.0002645765815748
  0.6236617823708810  0.6245303281034039  0.8750266088291175
  0.8737631951467697  0.6256675234905719  0.8744000622771663
  0.2508416091356100  0.0008828833668048  0.0009114172287961
  0.5009841742884306  0.0009523437429418  0.0010800148927364
  0.7491479365878243 -0.0002566384181992 -0.0004965139858756
  0.6243395555691800  0.8746208575991713  0.8775388840514957
 -0.0011174093519953 -0.0008069056298384 -0.0009221564215066
  0.8758948048653741  0.8763261293694641  0.8756364464048143
 
  0.00000000E+00  0.00000000E+00  0.00000000E+00
  0.00000000E+00  0.00000000E+00  0.00000000E+00
  0.00000000E+00  0.00000000E+00  0.00000000E+00
  0.00000000E+00  0.00000000E+00  0.00000000E+00
  0.00000000E+00  0.00000000E+00  0.00000000E+00
  0.00000000E+00  0.00000000E+00  0.00000000E+00
  0.00000000E+00  0.00000000E+00  0.00000000E+00
  0.00000000E+00  0.00000000E+00  0.00000000E+00
  0.00000000E+00  0.00000000E+00  0.00000000E+00
  0.00000000E+00  0.00000000E+00  0.00000000E+00
  0.00000000E+00  0.00000000E+00  0.00000000E+00
  0.00000000E+00  0.00000000E+00  0.00000000E+00
  0.00000000E+00  0.00000000E+00  0.00000000E+00
  0.00000000E+00  0.00000000E+00  0.00000000E+00
  0.00000000E+00  0.00000000E+00  0.00000000E+00
  0.00000000E+00  0.00000000E+00  0.00000000E+00
  0.00000000E+00  0.00000000E+00  0.00000000E+00
  0.00000000E+00  0.00000000E+00  0.00000000E+00
  0.00000000E+00  0.00000000E+00  0.00000000E+00
  0.00000000E+00  0.00000000E+00  0.00000000E+00
  0.00000000E+00  0.00000000E+00  0.00000000E+00
  0.00000000E+00  0.00000000E+00  0.00000000E+00
  0.00000000E+00  0.00000000E+00  0.00000000E+00
  0.00000000E+00  0.00000000E+00  0.00000000E+00
  0.00000000E+00  0.00000000E+00  0.00000000E+00
  0.00000000E+00  0.00000000E+00  0.00000000E+00
  0.00000000E+00  0.00000000E+00  0.00000000E+00
  0.00000000E+00  0.00000000E+00  0.00000000E+00
  0.00000000E+00  0.00000000E+00  0.00000000E+00
  0.00000000E+00  0.00000000E+00  0.00000000E+00
  0.00000000E+00  0.00000000E+00  0.00000000E+00
  0.00000000E+00  0.00000000E+00  0.00000000E+00
  0.00000000E+00  0.00000000E+00  0.00000000E+00
  0.00000000E+00  0.00000000E+00  0.00000000E+00
  0.00000000E+00  0.00000000E+00  0.00000000E+00
  0.00000000E+00  0.00000000E+00  0.00000000E+00
  0.00000000E+00  0.00000000E+00  0.00000000E+00
  0.00000000E+00  0.00000000E+00  0.00000000E+00
  0.00000000E+00  0.00000000E+00  0.00000000E+00
  0.00000000E+00  0.00000000E+00  0.00000000E+00
  0.00000000E+00  0.00000000E+00  0.00000000E+00
  0.00000000E+00  0.00000000E+00  0.00000000E+00
  0.00000000E+00  0.00000000E+00  0.00000000E+00
  0.00000000E+00  0.00000000E+00  0.00000000E+00
  0.00000000E+00  0.00000000E+00  0.00000000E+00
  0.00000000E+00  0.00000000E+00  0.00000000E+00
  0.00000000E+00  0.00000000E+00  0.00000000E+00
  0.00000000E+00  0.00000000E+00  0.00000000E+00
  0.00000000E+00  0.00000000E+00  0.00000000E+00
  0.00000000E+00  0.00000000E+00  0.00000000E+00
  0.00000000E+00  0.00000000E+00  0.00000000E+00
  0.00000000E+00  0.00000000E+00  0.00000000E+00
  0.00000000E+00  0.00000000E+00  0.00000000E+00
  0.00000000E+00  0.00000000E+00  0.00000000E+00
  0.00000000E+00  0.00000000E+00  0.00000000E+00
  0.00000000E+00  0.00000000E+00  0.00000000E+00
  0.00000000E+00  0.00000000E+00  0.00000000E+00
  0.00000000E+00  0.00000000E+00  0.00000000E+00
  0.00000000E+00  0.00000000E+00  0.00000000E+00
  0.00000000E+00  0.00000000E+00  0.00000000E+00
  0.00000000E+00  0.00000000E+00  0.00000000E+00
  0.00000000E+00  0.00000000E+00  0.00000000E+00
  0.00000000E+00  0.00000000E+00  0.00000000E+00
  0.00000000E+00  0.00000000E+00  0.00000000E+00
  0.00000000E+00  0.00000000E+00  0.00000000E+00
  0.00000000E+00  0.00000000E+00  0.00000000E+00
  0.00000000E+00  0.00000000E+00  0.00000000E+00
  0.00000000E+00  0.00000000E+00  0.00000000E+00
  0.00000000E+00  0.00000000E+00  0.00000000E+00
  0.00000000E+00  0.00000000E+00  0.00000000E+00
  0.00000000E+00  0.00000000E+00  0.00000000E+00
  0.00000000E+00  0.00000000E+00  0.00000000E+00
  0.00000000E+00  0.00000000E+00  0.00000000E+00
  0.00000000E+00  0.00000000E+00  0.00000000E+00
  0.00000000E+00  0.00000000E+00  0.00000000E+00
  0.00000000E+00  0.00000000E+00  0.00000000E+00
  0.00000000E+00  0.00000000E+00  0.00000000E+00
  0.00000000E+00  0.00000000E+00  0.00000000E+00
  0.00000000E+00  0.00000000E+00  0.00000000E+00
  0.00000000E+00  0.00000000E+00  0.00000000E+00
  0.00000000E+00  0.00000000E+00  0.00000000E+00
  0.00000000E+00  0.00000000E+00  0.00000000E+00
  0.00000000E+00  0.00000000E+00  0.00000000E+00
  0.00000000E+00  0.00000000E+00  0.00000000E+00
  0.00000000E+00  0.00000000E+00  0.00000000E+00
  0.00000000E+00  0.00000000E+00  0.00000000E+00
  0.00000000E+00  0.00000000E+00  0.00000000E+00
  0.00000000E+00  0.00000000E+00  0.00000000E+00
  0.00000000E+00  0.00000000E+00  0.00000000E+00
  0.00000000E+00  0.00000000E+00  0.00000000E+00
  0.00000000E+00  0.00000000E+00  0.00000000E+00
  0.00000000E+00  0.00000000E+00  0.00000000E+00
  0.00000000E+00  0.00000000E+00  0.00000000E+00
  0.00000000E+00  0.00000000E+00  0.00000000E+00
  0.00000000E+00  0.00000000E+00  0.00000000E+00
  0.00000000E+00  0.00000000E+00  0.00000000E+00
  0.00000000E+00  0.00000000E+00  0.00000000E+00
  0.00000000E+00  0.00000000E+00  0.00000000E+00
  0.00000000E+00  0.00000000E+00  0.00000000E+00
  0.00000000E+00  0.00000000E+00  0.00000000E+00
  0.00000000E+00  0.00000000E+00  0.00000000E+00
  0.00000000E+00  0.00000000E+00  0.00000000E+00
  0.00000000E+00  0.00000000E+00  0.00000000E+00
  0.00000000E+00  0.00000000E+00  0.00000000E+00
  0.00000000E+00  0.00000000E+00  0.00000000E+00
  0.00000000E+00  0.00000000E+00  0.00000000E+00
  0.00000000E+00  0.00000000E+00  0.00000000E+00
  0.00000000E+00  0.00000000E+00  0.00000000E+00
  0.00000000E+00  0.00000000E+00  0.00000000E+00
  0.00000000E+00  0.00000000E+00  0.00000000E+00
  0.00000000E+00  0.00000000E+00  0.00000000E+00
  0.00000000E+00  0.00000000E+00  0.00000000E+00
  0.00000000E+00  0.00000000E+00  0.00000000E+00
  0.00000000E+00  0.00000000E+00  0.00000000E+00
  0.00000000E+00  0.00000000E+00  0.00000000E+00
  0.00000000E+00  0.00000000E+00  0.00000000E+00
  0.00000000E+00  0.00000000E+00  0.00000000E+00
  0.00000000E+00  0.00000000E+00  0.00000000E+00
  0.00000000E+00  0.00000000E+00  0.00000000E+00
  0.00000000E+00  0.00000000E+00  0.00000000E+00
  0.00000000E+00  0.00000000E+00  0.00000000E+00
  0.00000000E+00  0.00000000E+00  0.00000000E+00
  0.00000000E+00  0.00000000E+00  0.00000000E+00
  0.00000000E+00  0.00000000E+00  0.00000000E+00
  0.00000000E+00  0.00000000E+00  0.00000000E+00
  0.00000000E+00  0.00000000E+00  0.00000000E+00
  0.00000000E+00  0.00000000E+00  0.00000000E+00
  0.00000000E+00  0.00000000E+00  0.00000000E+00
