#generated using str2pos                
    1.000000000000000     
    12.8196515376760853    0.0000947729567176    0.0057746499604617
     0.0000953078982988   12.8206239741586732    0.0083907993425510
     0.0057745716091706    0.0083904278996811   12.8181704978740143
   Ta   W 
    38    90
Direct
  0.1254877187821565  0.1272327916269810  0.1252107068940208
  0.5014618583091116  0.2480300940679684  0.2496604283126721
  0.7478575416749348  0.2497658473822864  0.2478406386337816
  0.1251107516631812  0.3755656876424588  0.1243843784940331
  0.3736083285919665  0.3762465964392954  0.1238353433750138
  0.4976109180631157  0.7520327415575120  0.2497962600453859
  0.6257271774976779  0.6244840150222508  0.1240458856254049
  0.7502082937343095 -0.0005185689390840  0.2496081633428693
  0.6258831252607817  0.8733431433873540  0.1234373127099007
 -0.0005668969303101 -0.0034162041678983  0.2486215372510868
  0.1262767656601844  0.1253166387883735  0.3755629581283028
  0.5006135768650409  0.2487403002642599  0.4994830378965122
  0.7487270565093133  0.2490820875703799  0.5011186471123869
  0.8776151077777299  0.1249005140196998  0.3769170356922388
  0.3729817665231274  0.3769867307921468  0.3744681356136996
 -0.0007845384146980  0.5013146252882874  0.4989035145325967
  0.8760423726125396  0.3761723917235856  0.3735925922682366
  0.3743835894207995  0.6247899562382274  0.3757744468209927
  0.6251046681820269  0.6249011410325662  0.3754256488325681
 -0.0010569884184199  0.7486977193776617  0.4967514031065233
  0.3744106514835374  0.1238975424683549  0.6261241105187945
  0.2521921594618923  0.4996031249277750  0.7523712176663825
  0.1249667450695433  0.3735166650778767  0.6258542168513564
  0.7492970179938534  0.5003536198843135  0.7507166447152049
  0.6238750390290925  0.3758934262582946  0.6270360359587478
  0.2519466005372670  0.7485010532543447  0.7511552362693683
  0.1255142261762434  0.6248170356707100  0.6250800591332589
  0.1258913373641054  0.8756831602184386  0.6239705949644606
  0.6250756062908704  0.8746763128001437  0.6253102123737437
  0.0007532015028414  0.0015549624195158  0.7509812289232601
  0.8726834646398250  0.8751275391661513  0.6251573287307185
  0.7490467755161040  0.2509184282667060  0.0003791153958252
  0.8747522617048228  0.1254761252326299  0.8746849303134773
  0.0010357899481841  0.7502554499376656  0.0014420361199617
  0.8747624085907824  0.6250302083430328  0.8757190083035784
  0.2507671375063961  0.0000676054866636  0.0004710594557901
  0.4997348577138840  0.0015552596218968 -0.0002707785332206
  0.3766095779517951  0.8739218825491625  0.8742577640928849
  0.2513777732867732  0.2495352881875586  0.2503141271422984
  0.3739827600183070  0.1260454183689742  0.1252491433505468
  0.6238443635978226  0.1238667098942715  0.1232873587610035
 -0.0007364042019392  0.2510991640029704  0.2486635051816543
  0.8767700618288203  0.1248739255484073  0.1226683617804230
  0.2477047079638023  0.5025793054265878  0.2492325739104002
  0.5003526583494630  0.4995246086582436  0.2484181775490293
  0.7514278514899237  0.4996403911432633  0.2487628928943916
  0.6239758554379438  0.3776516470870458  0.1231359182217445
 -0.0001733981671272  0.5020753937406248  0.2493234541104259
  0.8767914419325192  0.3772840438272815  0.1246195414497843
  0.2490137457223738  0.7508339459507974  0.2491208043349320
  0.1253025089288456  0.6240238563904986  0.1256153978105907
  0.3740769402015635  0.6243590360103444  0.1244127388757526
  0.7521150469834402  0.7503929017901478  0.2503208889853547
  0.0007175813855389  0.7494895601175277  0.2489111846514890
  0.8746581883479327  0.6244327646927996  0.1249909335357657
  0.2513349930322682 -0.0021976457221999  0.2500299449538854
  0.1256194023413736  0.8737745822072617  0.1258018876855058
  0.4995261371449685  0.0005993206154270  0.2504601115589689
  0.3742972429870212  0.8741448108651846  0.1258297350851305
  0.8744956012196777  0.8731305463147522  0.1240666020852581
  0.2502710372769684  0.2494251372821421  0.5010781917111053
  0.3732098688355794  0.1230760128997290  0.3758586403588927
  0.6241582634379440  0.1218945933394277  0.3760949898407424
 -0.0000107084929365  0.2507348660345610  0.5023892042105605
  0.2497546564484089  0.5002252746918128  0.5003339855827651
  0.1254830881455431  0.3743241530959844  0.3740378997113228
  0.4998265954557423  0.5001327119893391  0.5024686016967013
  0.7505950517812000  0.5008810695258340  0.5011346609186722
  0.6246428869790619  0.3782371969732301  0.3752693720848891
  0.2505854994558138  0.7510270657879273  0.4987588925090435
  0.1263728263522098  0.6254300286657752  0.3727925607261896
  0.4994369782368270  0.7509490269980544  0.5010813474824856
  0.7502533607240127  0.7495192910797985  0.4995714042274245
  0.8732621154410617  0.6248501479254854  0.3728429397032100
  0.2515972431216564 -0.0009552322457922  0.4990939652606320
  0.1268779070392127  0.8750365806840414  0.3745548775685187
  0.4997290748615545 -0.0003965526025166  0.4991697518404053
  0.3739061858592695  0.8751125011834603  0.3755424400582910
  0.7484443832790958  0.0001294662070937  0.4992804202662743
  0.6241329828592350  0.8740944902568168  0.3767298206770728
  0.0005381054274596 -0.0005590661867787  0.5001482737884566
  0.8742785666646968  0.8736133688810519  0.3753614803798269
  0.2500488918130406  0.2502843582282860  0.7516320709962383
  0.1264379326446588  0.1260285504665357  0.6246048555951212
  0.4994540701953805  0.2503811727162942  0.7517401324125350
  0.7500227100062113  0.2506565908981026  0.7510250977905125
  0.6240446908136751  0.1229098303783616  0.6271680779065851
  0.0004457170445716  0.2496154798151430  0.7505852730592167
  0.8748940738548926  0.1247652478286394  0.6260749543796268
  0.4997039193932102  0.5005967630438219  0.7515114973020699
  0.3748397314490348  0.3743025755712956  0.6256482651170765
 -0.0008688268998832  0.4984328131980229  0.7512182786701790
  0.8754151947777172  0.3744037163426113  0.6258991081448873
  0.5002602845259536  0.7484364288271202  0.7499108740637421
  0.3767592191784506  0.6250286299209046  0.6241447498179491
  0.7484632680354674  0.7490376647843517  0.7507208589114338
  0.6239562000891863  0.6259239357470190  0.6246211921469933
  0.0001900245126127  0.7504926089043020  0.7521107617072759
  0.8737906483225564  0.6260834635376596  0.6260881875402811
  0.2496106336353385  0.0005561261025520  0.7508922630867009
  0.5009988254473889  0.0005178378987261  0.7506784975879272
  0.3764795087578962  0.8758749419829231  0.6240263888548796
  0.7494732571590780  0.0005867767697971  0.7507205428467136
  0.2507789154279406  0.2497879246229854 -0.0025057040055849
  0.1249575019711194  0.1270779319428091  0.8753252470731974
  0.5007159136782706  0.2499169103068834 -0.0009069093906861
  0.3752903169404325  0.1266765540718157  0.8730750557465113
  0.6249879331911332  0.1252914514375632  0.8734571734909693
 -0.0009383704683815  0.2516305489896975 -0.0017606016575624
  0.2501502873049211  0.5015223082327763 -0.0012326474413561
  0.1249010399425232  0.3742874358464762  0.8760301245056684
  0.4996812013955088  0.4998850759439289 -0.0021569316816492
  0.3756944511755487  0.3747382993164171  0.8762358128299066
  0.7497605048505412  0.4987281129283976 -0.0003454430232324
  0.6231823739282688  0.3751018220446317  0.8748991153600677
  0.0002708433842544  0.5009268855866020  0.0006333970642187
  0.8761462262345175  0.3751294658442337  0.8754308772567426
  0.2488783565803680  0.7494281196823804  0.0010088139693038
  0.1246285897313080  0.6238075323537058  0.8767292687067483
  0.4994766368003036  0.7489603419388895 -0.0012687031786806
  0.3769235581290315  0.6244901245197695  0.8764807531489248
  0.7515388761219594  0.7503616727330024 -0.0008785711883352
  0.6244491331260433  0.6253300966657515  0.8757153746154448
  0.1257634048602677  0.8752238064496368  0.8753121584103952
  0.7494537723080434  0.0004387159179247 -0.0002501802015000
  0.6254129027717573  0.8744298967502361  0.8735921526465380
  0.0004648471953907 -0.0015268723951689 -0.0004255504532417
  0.8735827277959528  0.8749809670239473  0.8750768889996078
 
  0.00000000E+00  0.00000000E+00  0.00000000E+00
  0.00000000E+00  0.00000000E+00  0.00000000E+00
  0.00000000E+00  0.00000000E+00  0.00000000E+00
  0.00000000E+00  0.00000000E+00  0.00000000E+00
  0.00000000E+00  0.00000000E+00  0.00000000E+00
  0.00000000E+00  0.00000000E+00  0.00000000E+00
  0.00000000E+00  0.00000000E+00  0.00000000E+00
  0.00000000E+00  0.00000000E+00  0.00000000E+00
  0.00000000E+00  0.00000000E+00  0.00000000E+00
  0.00000000E+00  0.00000000E+00  0.00000000E+00
  0.00000000E+00  0.00000000E+00  0.00000000E+00
  0.00000000E+00  0.00000000E+00  0.00000000E+00
  0.00000000E+00  0.00000000E+00  0.00000000E+00
  0.00000000E+00  0.00000000E+00  0.00000000E+00
  0.00000000E+00  0.00000000E+00  0.00000000E+00
  0.00000000E+00  0.00000000E+00  0.00000000E+00
  0.00000000E+00  0.00000000E+00  0.00000000E+00
  0.00000000E+00  0.00000000E+00  0.00000000E+00
  0.00000000E+00  0.00000000E+00  0.00000000E+00
  0.00000000E+00  0.00000000E+00  0.00000000E+00
  0.00000000E+00  0.00000000E+00  0.00000000E+00
  0.00000000E+00  0.00000000E+00  0.00000000E+00
  0.00000000E+00  0.00000000E+00  0.00000000E+00
  0.00000000E+00  0.00000000E+00  0.00000000E+00
  0.00000000E+00  0.00000000E+00  0.00000000E+00
  0.00000000E+00  0.00000000E+00  0.00000000E+00
  0.00000000E+00  0.00000000E+00  0.00000000E+00
  0.00000000E+00  0.00000000E+00  0.00000000E+00
  0.00000000E+00  0.00000000E+00  0.00000000E+00
  0.00000000E+00  0.00000000E+00  0.00000000E+00
  0.00000000E+00  0.00000000E+00  0.00000000E+00
  0.00000000E+00  0.00000000E+00  0.00000000E+00
  0.00000000E+00  0.00000000E+00  0.00000000E+00
  0.00000000E+00  0.00000000E+00  0.00000000E+00
  0.00000000E+00  0.00000000E+00  0.00000000E+00
  0.00000000E+00  0.00000000E+00  0.00000000E+00
  0.00000000E+00  0.00000000E+00  0.00000000E+00
  0.00000000E+00  0.00000000E+00  0.00000000E+00
  0.00000000E+00  0.00000000E+00  0.00000000E+00
  0.00000000E+00  0.00000000E+00  0.00000000E+00
  0.00000000E+00  0.00000000E+00  0.00000000E+00
  0.00000000E+00  0.00000000E+00  0.00000000E+00
  0.00000000E+00  0.00000000E+00  0.00000000E+00
  0.00000000E+00  0.00000000E+00  0.00000000E+00
  0.00000000E+00  0.00000000E+00  0.00000000E+00
  0.00000000E+00  0.00000000E+00  0.00000000E+00
  0.00000000E+00  0.00000000E+00  0.00000000E+00
  0.00000000E+00  0.00000000E+00  0.00000000E+00
  0.00000000E+00  0.00000000E+00  0.00000000E+00
  0.00000000E+00  0.00000000E+00  0.00000000E+00
  0.00000000E+00  0.00000000E+00  0.00000000E+00
  0.00000000E+00  0.00000000E+00  0.00000000E+00
  0.00000000E+00  0.00000000E+00  0.00000000E+00
  0.00000000E+00  0.00000000E+00  0.00000000E+00
  0.00000000E+00  0.00000000E+00  0.00000000E+00
  0.00000000E+00  0.00000000E+00  0.00000000E+00
  0.00000000E+00  0.00000000E+00  0.00000000E+00
  0.00000000E+00  0.00000000E+00  0.00000000E+00
  0.00000000E+00  0.00000000E+00  0.00000000E+00
  0.00000000E+00  0.00000000E+00  0.00000000E+00
  0.00000000E+00  0.00000000E+00  0.00000000E+00
  0.00000000E+00  0.00000000E+00  0.00000000E+00
  0.00000000E+00  0.00000000E+00  0.00000000E+00
  0.00000000E+00  0.00000000E+00  0.00000000E+00
  0.00000000E+00  0.00000000E+00  0.00000000E+00
  0.00000000E+00  0.00000000E+00  0.00000000E+00
  0.00000000E+00  0.00000000E+00  0.00000000E+00
  0.00000000E+00  0.00000000E+00  0.00000000E+00
  0.00000000E+00  0.00000000E+00  0.00000000E+00
  0.00000000E+00  0.00000000E+00  0.00000000E+00
  0.00000000E+00  0.00000000E+00  0.00000000E+00
  0.00000000E+00  0.00000000E+00  0.00000000E+00
  0.00000000E+00  0.00000000E+00  0.00000000E+00
  0.00000000E+00  0.00000000E+00  0.00000000E+00
  0.00000000E+00  0.00000000E+00  0.00000000E+00
  0.00000000E+00  0.00000000E+00  0.00000000E+00
  0.00000000E+00  0.00000000E+00  0.00000000E+00
  0.00000000E+00  0.00000000E+00  0.00000000E+00
  0.00000000E+00  0.00000000E+00  0.00000000E+00
  0.00000000E+00  0.00000000E+00  0.00000000E+00
  0.00000000E+00  0.00000000E+00  0.00000000E+00
  0.00000000E+00  0.00000000E+00  0.00000000E+00
  0.00000000E+00  0.00000000E+00  0.00000000E+00
  0.00000000E+00  0.00000000E+00  0.00000000E+00
  0.00000000E+00  0.00000000E+00  0.00000000E+00
  0.00000000E+00  0.00000000E+00  0.00000000E+00
  0.00000000E+00  0.00000000E+00  0.00000000E+00
  0.00000000E+00  0.00000000E+00  0.00000000E+00
  0.00000000E+00  0.00000000E+00  0.00000000E+00
  0.00000000E+00  0.00000000E+00  0.00000000E+00
  0.00000000E+00  0.00000000E+00  0.00000000E+00
  0.00000000E+00  0.00000000E+00  0.00000000E+00
  0.00000000E+00  0.00000000E+00  0.00000000E+00
  0.00000000E+00  0.00000000E+00  0.00000000E+00
  0.00000000E+00  0.00000000E+00  0.00000000E+00
  0.00000000E+00  0.00000000E+00  0.00000000E+00
  0.00000000E+00  0.00000000E+00  0.00000000E+00
  0.00000000E+00  0.00000000E+00  0.00000000E+00
  0.00000000E+00  0.00000000E+00  0.00000000E+00
  0.00000000E+00  0.00000000E+00  0.00000000E+00
  0.00000000E+00  0.00000000E+00  0.00000000E+00
  0.00000000E+00  0.00000000E+00  0.00000000E+00
  0.00000000E+00  0.00000000E+00  0.00000000E+00
  0.00000000E+00  0.00000000E+00  0.00000000E+00
  0.00000000E+00  0.00000000E+00  0.00000000E+00
  0.00000000E+00  0.00000000E+00  0.00000000E+00
  0.00000000E+00  0.00000000E+00  0.00000000E+00
  0.00000000E+00  0.00000000E+00  0.00000000E+00
  0.00000000E+00  0.00000000E+00  0.00000000E+00
  0.00000000E+00  0.00000000E+00  0.00000000E+00
  0.00000000E+00  0.00000000E+00  0.00000000E+00
  0.00000000E+00  0.00000000E+00  0.00000000E+00
  0.00000000E+00  0.00000000E+00  0.00000000E+00
  0.00000000E+00  0.00000000E+00  0.00000000E+00
  0.00000000E+00  0.00000000E+00  0.00000000E+00
  0.00000000E+00  0.00000000E+00  0.00000000E+00
  0.00000000E+00  0.00000000E+00  0.00000000E+00
  0.00000000E+00  0.00000000E+00  0.00000000E+00
  0.00000000E+00  0.00000000E+00  0.00000000E+00
  0.00000000E+00  0.00000000E+00  0.00000000E+00
  0.00000000E+00  0.00000000E+00  0.00000000E+00
  0.00000000E+00  0.00000000E+00  0.00000000E+00
  0.00000000E+00  0.00000000E+00  0.00000000E+00
  0.00000000E+00  0.00000000E+00  0.00000000E+00
  0.00000000E+00  0.00000000E+00  0.00000000E+00
  0.00000000E+00  0.00000000E+00  0.00000000E+00
  0.00000000E+00  0.00000000E+00  0.00000000E+00
  0.00000000E+00  0.00000000E+00  0.00000000E+00
