#generated using str2pos                
    1.000000000000000     
    12.8474649433911274    0.0041877892570522    0.0040575340537193
     0.0041881617440728   12.8397241609728834   -0.0013852520283057
     0.0040571665953499   -0.0013849585011899   12.8511606364218256
   Ta   W 
    45    83
Direct
  0.2483853452230939  0.2507038779904668  0.2489435408096995
  0.0000876913515236  0.2502355274539845  0.2502806689832730
  0.2492674221694540  0.4975323921901611  0.2519149798031713
  0.6257422645122591  0.3758072241616520  0.1254692948431186
 -0.0006466850547165  0.4985566734333554  0.2503177469236150
  0.1256071721324619  0.6256336808342512  0.1228287310055241
  0.3751707270581402  0.6250541090269495  0.1257490590208323
  0.6255667598308070  0.6234913140609121  0.1254556803751027
 -0.0023360091992435  0.7475732367665953  0.2515285303757840
  0.1251740661867148  0.8758150731924358  0.1246903158052196
  0.3726734236299562  0.8750070158698912  0.1272406810857369
  0.7496253265305818  0.0015103517247439  0.2501047479363021
  0.8751550028475634  0.8752101408643185  0.1235527171454963
  0.5002036981215786  0.2505840393849990  0.5019305913764235
  0.3747111050838894  0.1232324767391915  0.3749479539036494
  0.7505258153260114  0.2494969962439193  0.5005361030538892
 -0.0020900861770428  0.2496089022693276  0.4974044733953235
  0.4993390993701420  0.5009403934087053  0.5012198923814952
  0.7494445963665161  0.4999982408794922  0.4999067626931404
  0.6244695054724259  0.3751775336206793  0.3705859859534015
  0.1255782221992547  0.8752189014143820  0.3758341467230403
  0.7507670238841252  0.0008245571586398  0.5001159969305534
  0.6229010087734027  0.8731566503799297  0.3748987522993196
  0.1258532286553235  0.1246027852830522  0.6260620923956530
  0.5006971157061733  0.2505303166346873  0.7502090784099371
  0.2535046384550300  0.5010414382731795  0.7511882782881557
  0.1250056687724817  0.3747294632549773  0.6256988267109911
  0.2519104440012239  0.7478463175490143  0.7512567843553202
  0.1235399015534547  0.6244835667867303  0.6237828366620723
  0.7515401314094556  0.7507833349791112  0.7487585272441651
  0.8767688731334589  0.6251863509777883  0.6249994100625342
  0.1249055857951182  0.8757935670865821  0.6238680930831090
  0.5009883402853454  0.0024074738190207  0.7501740290354525
  0.3751594239351071  0.8750559107601547  0.6227925137988637
  0.7499291974280390  0.0002030499934119  0.7479118441190732
  0.1245224829852777  0.1250846390929791  0.8750936383576847
  0.4991723198705572  0.2491991466613661 -0.0011395453763520
  0.8764997694497721  0.1265948422016711  0.8761766019566964
  0.1240395348846034  0.3740827838022940  0.8754074789258418
  0.8752947311348155  0.3750841498110195  0.8753730133680072
  0.4996234521530296  0.7513187516524777 -0.0005100850039918
  0.6259196087257487  0.6235156706839947  0.8750631445055149
  0.1240469023285827  0.8762310240007319  0.8759055434929334
  0.4999379487433829  0.0021980327088032  0.0001164776649896
  0.6265964883310173  0.8737435413984858  0.8755216573632033
  0.1245048984723780  0.1238603357260206  0.1235058726816843
  0.4986990867599536  0.2490840563999769  0.2487196498980667
  0.3738921506821960  0.1243466225852336  0.1262795918514062
  0.7515067216446919  0.2486422931664468  0.2493649421246558
  0.6259096961625346  0.1268899059030552  0.1257373785594328
  0.8749156729778275  0.1250642887182225  0.1233521013703983
  0.1246230158226748  0.3747410992943600  0.1220200490978709
  0.4982156885989795  0.4999686039262033  0.2516489716388227
  0.3758855771423589  0.3755319213171008  0.1240484055401297
  0.7521785457863135  0.5006296967406864  0.2504990825905709
  0.8731155087751626  0.3749513256805860  0.1228684739390120
  0.2501448592598173  0.7487086746099180  0.2527129647985518
  0.5000052229458797  0.7499954175133788  0.2519579729815290
  0.7501361983659159  0.7495201744137321  0.2507447894447541
  0.8732966390411507  0.6249011443967877  0.1236660105819094
  0.2496758400376589  0.0018614110948068  0.2501217763825550
  0.5006209117418197  0.0003947423270773  0.2490777580796444
  0.6255212830151643  0.8744699547600746  0.1264985419702105
 -0.0012983520586922  0.0023422411567974  0.2509270359447400
  0.2503283927927046  0.2507302839895160  0.4989896192860558
  0.1260789628888236  0.1222396629493239  0.3756542934527791
  0.6226693575413798  0.1246146980448940  0.3729032757978732
  0.8754052412034615  0.1242489946883709  0.3735365068982884
  0.2516640472405918  0.4997141886361525  0.4989549293950498
  0.1254001942618503  0.3754389331915018  0.3775770798601313
  0.3750083585451973  0.3745761582219851  0.3751157196368751
 -0.0008917793080348  0.4989395009183015  0.4976321103066912
  0.8735326636786935  0.3759141674902286  0.3737370592872440
  0.2516467967693397  0.7482122975939287  0.4990661703169513
  0.1255877633311948  0.6258554554648280  0.3771708236813373
  0.4999263830399769  0.7481087926536464  0.4995679213071533
  0.3750820381896627  0.6261205356983753  0.3753408226697894
  0.7492532012386925  0.7498840140926917  0.4998187175534883
  0.6243855268846564  0.6266244887133272  0.3735177903635353
 -0.0015986817864052  0.7499984356913750  0.4983930366337349
  0.8737102101605889  0.6253919911605681  0.3758492982123898
  0.2505190996976051  0.0004564110367178  0.4989337339876992
  0.5011047490290560  0.0002146471091511  0.5004834548116990
  0.3747450372599831  0.8747737704313910  0.3751772634816005
 -0.0022599314040882  0.0007137255041650  0.4990439237891735
  0.8750575348721404  0.8737941178507517  0.3751946143500853
  0.2536345049354925  0.2506713679514170  0.7505121424564474
  0.3726746416552945  0.1241247041139630  0.6238561007768598
  0.7480698858851875  0.2502126219486472  0.7489335000696220
  0.6251501345264967  0.1255746697911233  0.6248921757239472
 -0.0015963090706916  0.2501479699402751  0.7484325940098446
  0.8770582327954820  0.1249894180041254  0.6266216088979015
  0.5001652817257672  0.4986377333330236  0.7490419495318105
  0.3737295155153615  0.3751435186849426  0.6257038534121414
  0.7492441108313200  0.4993244600322010  0.7492825491588384
  0.6258236201166227  0.3762028707708725  0.6272724048527606
 -0.0002726917991129  0.5009751820328395  0.7512231118834426
  0.8759779021324826  0.3762963181929410  0.6278232458163594
  0.5001631364504672  0.7491593492857354  0.7484518175681751
  0.3763529232316560  0.6259245452406621  0.6240296149947822
  0.6250501819669337  0.6255260856949045  0.6256566721366337
 -0.0009672474040514  0.7501661026238404  0.7512274721869089
  0.2526615110421307  0.0004612747748126  0.7508759544639451
  0.6234975828468317  0.8734366910980933  0.6225962068464287
 -0.0021881148845185 -0.0008972385874994  0.7491755891076212
  0.8772878126794105  0.8740057323760914  0.6241121585995472
  0.2513512237169741  0.2502693224281025  0.0017742465722925
  0.3718233535698552  0.1260605819878086  0.8751455720034715
  0.7491205155140493  0.2499163506247859  0.0006362489314386
  0.6278673189024557  0.1264412869288848  0.8761886671167399
 -0.0000278939308802  0.2505636680698315  0.0038485338909649
  0.2503737521501977  0.4985277198542788 -0.0004222430198615
  0.4989247667945971  0.4979942158733342 -0.0017265633799896
  0.3746645483424990  0.3756532990384223  0.8758947013539531
  0.7519078585684487  0.4995912899901500  0.0000750456016655
  0.6270192244549639  0.3769651437350757  0.8757547238724708
 -0.0005033136985509  0.5006209987261482  0.0010443503640879
  0.2504224397283018  0.7492665734336237 -0.0025716611886944
  0.1239827231169272  0.6249072727252939  0.8763352053172959
  0.3766895717478858  0.6236040743201804  0.8759021915651757
  0.7516960660527403  0.7497940733490350 -0.0000629700089583
 -0.0014793689433421  0.7484191794534151 -0.0014087058895401
  0.8758126636912484  0.6237108058436038  0.8755779663041652
  0.2512090672049542  0.0022792112147747  0.0005131389304263
  0.3736372919384717  0.8753120534096513  0.8748216907047291
  0.7492069829757341  0.0013197492628904  0.0011120552668054
 -0.0007597710601550  0.0009279669917401  0.0010270280103550
  0.8768617493073073  0.8752171380937838  0.8762429283884533
 
  0.00000000E+00  0.00000000E+00  0.00000000E+00
  0.00000000E+00  0.00000000E+00  0.00000000E+00
  0.00000000E+00  0.00000000E+00  0.00000000E+00
  0.00000000E+00  0.00000000E+00  0.00000000E+00
  0.00000000E+00  0.00000000E+00  0.00000000E+00
  0.00000000E+00  0.00000000E+00  0.00000000E+00
  0.00000000E+00  0.00000000E+00  0.00000000E+00
  0.00000000E+00  0.00000000E+00  0.00000000E+00
  0.00000000E+00  0.00000000E+00  0.00000000E+00
  0.00000000E+00  0.00000000E+00  0.00000000E+00
  0.00000000E+00  0.00000000E+00  0.00000000E+00
  0.00000000E+00  0.00000000E+00  0.00000000E+00
  0.00000000E+00  0.00000000E+00  0.00000000E+00
  0.00000000E+00  0.00000000E+00  0.00000000E+00
  0.00000000E+00  0.00000000E+00  0.00000000E+00
  0.00000000E+00  0.00000000E+00  0.00000000E+00
  0.00000000E+00  0.00000000E+00  0.00000000E+00
  0.00000000E+00  0.00000000E+00  0.00000000E+00
  0.00000000E+00  0.00000000E+00  0.00000000E+00
  0.00000000E+00  0.00000000E+00  0.00000000E+00
  0.00000000E+00  0.00000000E+00  0.00000000E+00
  0.00000000E+00  0.00000000E+00  0.00000000E+00
  0.00000000E+00  0.00000000E+00  0.00000000E+00
  0.00000000E+00  0.00000000E+00  0.00000000E+00
  0.00000000E+00  0.00000000E+00  0.00000000E+00
  0.00000000E+00  0.00000000E+00  0.00000000E+00
  0.00000000E+00  0.00000000E+00  0.00000000E+00
  0.00000000E+00  0.00000000E+00  0.00000000E+00
  0.00000000E+00  0.00000000E+00  0.00000000E+00
  0.00000000E+00  0.00000000E+00  0.00000000E+00
  0.00000000E+00  0.00000000E+00  0.00000000E+00
  0.00000000E+00  0.00000000E+00  0.00000000E+00
  0.00000000E+00  0.00000000E+00  0.00000000E+00
  0.00000000E+00  0.00000000E+00  0.00000000E+00
  0.00000000E+00  0.00000000E+00  0.00000000E+00
  0.00000000E+00  0.00000000E+00  0.00000000E+00
  0.00000000E+00  0.00000000E+00  0.00000000E+00
  0.00000000E+00  0.00000000E+00  0.00000000E+00
  0.00000000E+00  0.00000000E+00  0.00000000E+00
  0.00000000E+00  0.00000000E+00  0.00000000E+00
  0.00000000E+00  0.00000000E+00  0.00000000E+00
  0.00000000E+00  0.00000000E+00  0.00000000E+00
  0.00000000E+00  0.00000000E+00  0.00000000E+00
  0.00000000E+00  0.00000000E+00  0.00000000E+00
  0.00000000E+00  0.00000000E+00  0.00000000E+00
  0.00000000E+00  0.00000000E+00  0.00000000E+00
  0.00000000E+00  0.00000000E+00  0.00000000E+00
  0.00000000E+00  0.00000000E+00  0.00000000E+00
  0.00000000E+00  0.00000000E+00  0.00000000E+00
  0.00000000E+00  0.00000000E+00  0.00000000E+00
  0.00000000E+00  0.00000000E+00  0.00000000E+00
  0.00000000E+00  0.00000000E+00  0.00000000E+00
  0.00000000E+00  0.00000000E+00  0.00000000E+00
  0.00000000E+00  0.00000000E+00  0.00000000E+00
  0.00000000E+00  0.00000000E+00  0.00000000E+00
  0.00000000E+00  0.00000000E+00  0.00000000E+00
  0.00000000E+00  0.00000000E+00  0.00000000E+00
  0.00000000E+00  0.00000000E+00  0.00000000E+00
  0.00000000E+00  0.00000000E+00  0.00000000E+00
  0.00000000E+00  0.00000000E+00  0.00000000E+00
  0.00000000E+00  0.00000000E+00  0.00000000E+00
  0.00000000E+00  0.00000000E+00  0.00000000E+00
  0.00000000E+00  0.00000000E+00  0.00000000E+00
  0.00000000E+00  0.00000000E+00  0.00000000E+00
  0.00000000E+00  0.00000000E+00  0.00000000E+00
  0.00000000E+00  0.00000000E+00  0.00000000E+00
  0.00000000E+00  0.00000000E+00  0.00000000E+00
  0.00000000E+00  0.00000000E+00  0.00000000E+00
  0.00000000E+00  0.00000000E+00  0.00000000E+00
  0.00000000E+00  0.00000000E+00  0.00000000E+00
  0.00000000E+00  0.00000000E+00  0.00000000E+00
  0.00000000E+00  0.00000000E+00  0.00000000E+00
  0.00000000E+00  0.00000000E+00  0.00000000E+00
  0.00000000E+00  0.00000000E+00  0.00000000E+00
  0.00000000E+00  0.00000000E+00  0.00000000E+00
  0.00000000E+00  0.00000000E+00  0.00000000E+00
  0.00000000E+00  0.00000000E+00  0.00000000E+00
  0.00000000E+00  0.00000000E+00  0.00000000E+00
  0.00000000E+00  0.00000000E+00  0.00000000E+00
  0.00000000E+00  0.00000000E+00  0.00000000E+00
  0.00000000E+00  0.00000000E+00  0.00000000E+00
  0.00000000E+00  0.00000000E+00  0.00000000E+00
  0.00000000E+00  0.00000000E+00  0.00000000E+00
  0.00000000E+00  0.00000000E+00  0.00000000E+00
  0.00000000E+00  0.00000000E+00  0.00000000E+00
  0.00000000E+00  0.00000000E+00  0.00000000E+00
  0.00000000E+00  0.00000000E+00  0.00000000E+00
  0.00000000E+00  0.00000000E+00  0.00000000E+00
  0.00000000E+00  0.00000000E+00  0.00000000E+00
  0.00000000E+00  0.00000000E+00  0.00000000E+00
  0.00000000E+00  0.00000000E+00  0.00000000E+00
  0.00000000E+00  0.00000000E+00  0.00000000E+00
  0.00000000E+00  0.00000000E+00  0.00000000E+00
  0.00000000E+00  0.00000000E+00  0.00000000E+00
  0.00000000E+00  0.00000000E+00  0.00000000E+00
  0.00000000E+00  0.00000000E+00  0.00000000E+00
  0.00000000E+00  0.00000000E+00  0.00000000E+00
  0.00000000E+00  0.00000000E+00  0.00000000E+00
  0.00000000E+00  0.00000000E+00  0.00000000E+00
  0.00000000E+00  0.00000000E+00  0.00000000E+00
  0.00000000E+00  0.00000000E+00  0.00000000E+00
  0.00000000E+00  0.00000000E+00  0.00000000E+00
  0.00000000E+00  0.00000000E+00  0.00000000E+00
  0.00000000E+00  0.00000000E+00  0.00000000E+00
  0.00000000E+00  0.00000000E+00  0.00000000E+00
  0.00000000E+00  0.00000000E+00  0.00000000E+00
  0.00000000E+00  0.00000000E+00  0.00000000E+00
  0.00000000E+00  0.00000000E+00  0.00000000E+00
  0.00000000E+00  0.00000000E+00  0.00000000E+00
  0.00000000E+00  0.00000000E+00  0.00000000E+00
  0.00000000E+00  0.00000000E+00  0.00000000E+00
  0.00000000E+00  0.00000000E+00  0.00000000E+00
  0.00000000E+00  0.00000000E+00  0.00000000E+00
  0.00000000E+00  0.00000000E+00  0.00000000E+00
  0.00000000E+00  0.00000000E+00  0.00000000E+00
  0.00000000E+00  0.00000000E+00  0.00000000E+00
  0.00000000E+00  0.00000000E+00  0.00000000E+00
  0.00000000E+00  0.00000000E+00  0.00000000E+00
  0.00000000E+00  0.00000000E+00  0.00000000E+00
  0.00000000E+00  0.00000000E+00  0.00000000E+00
  0.00000000E+00  0.00000000E+00  0.00000000E+00
  0.00000000E+00  0.00000000E+00  0.00000000E+00
  0.00000000E+00  0.00000000E+00  0.00000000E+00
  0.00000000E+00  0.00000000E+00  0.00000000E+00
  0.00000000E+00  0.00000000E+00  0.00000000E+00
  0.00000000E+00  0.00000000E+00  0.00000000E+00
  0.00000000E+00  0.00000000E+00  0.00000000E+00
  0.00000000E+00  0.00000000E+00  0.00000000E+00
