#generated using str2pos                
    1.000000000000000     
    12.9455747913502943   -0.0022531397115341   -0.0197460277892341
    -0.0022367835651998   12.9842126406363061   -0.0184337389119240
    -0.0197600146579512   -0.0184347732362577   12.9459000237916069
   Ta   W 
    70    58
Direct
  0.3742845294573057  0.1281932486654306  0.1219401837717426
  0.7522371086361893  0.2474526210488832  0.2493068590136887
 -0.0010926003368456  0.2478414870008485  0.2507341575773473
  0.2479097360949419  0.4991844751966058  0.2541326615617163
  0.1293330076487545  0.3722497790914432  0.1240512882536561
  0.3761726820722116  0.3726543338435428  0.1246649788864361
  0.7544102934127257  0.4969409966509128  0.2518312134622893
  0.6190319991252973  0.3750243152086158  0.1260954226537663
 -0.0007102059833127  0.4970692740689334  0.2541692142836139
  0.2493231250670815  0.7540987981696050  0.2515669393464402
  0.1237692880687813  0.6253017352461365  0.1266394546137513
  0.5008714804595157  0.7563098274112249  0.2498087636255386
  0.3776861023748601  0.6223780562251700  0.1261233169900094
  0.6257599517056804  0.6246037845093623  0.1250742901793921
  0.8739680135466640  0.6295714484354035  0.1255963488691247
  0.2479429568180109  0.0011692651356644  0.2510206394541580
  0.5013325679300989  0.0012469570419452  0.2523005918814057
  0.3743999943977521  0.8806018295960516  0.1214940977155432
  0.7479194465335509  0.0033241070297271  0.2499156937847458
  0.0020911770300866  0.0030482701850016  0.2494860228691059
  0.8751144987256306  0.8724032935248760  0.1252404228862833
  0.2493364253776185  0.2515752941055845  0.4982999239377578
  0.2474941019590031  0.4972250133825191  0.5012063757743268
  0.4976958116378952  0.4971542679979959  0.5019210999862228
  0.7545748306346293  0.5008651519302044  0.4995374405516281
  0.6228720516258863  0.3727085410402159  0.3757744388792325
  0.0016709287906171  0.5005840531123497  0.4999582053209055
  0.2485695086051877  0.7521546384645419  0.4990940642277029
  0.3784308566875644  0.6250337645774839  0.3751842278890828
  0.7519510864608999  0.7507124691713840  0.5009904834868667
  0.6233819818622203  0.6245997995918696  0.3741615493344083
  0.0003309318157390  0.7473098365968514  0.5012793616180062
  0.2514581689225022  0.0010563233596806  0.4962573684316486
  0.4996578463349262 -0.0007256198718774  0.4976611757256449
  0.7482877646466977 -0.0021030267646971  0.4988008363469168
  0.8765003852466980  0.8743408772465625  0.3727046154174307
  0.1224186213389765  0.1239986761014055  0.6274340176260271
  0.3740480012127873  0.1268255704334930  0.6272348316951264
  0.6248972649050123  0.1288295465988761  0.6253463460258192
  0.8767744981803667  0.1266441974643089  0.6250313095672858
  0.2504882900021439  0.5008889366005455  0.7491131607158511
  0.4975633375033507  0.4975301485810434  0.7517778635466121
  0.7512207599376232  0.4981873481328220  0.7513410552467388
  0.6259733275170400  0.3702728650413257  0.6248608537153190
  0.0017751694678433  0.5009842542082589  0.7482615282112186
  0.8750789890874081  0.3684085102150281  0.6256418929788694
  0.2496066727166810  0.7498736870807055  0.7509466595666644
  0.3785224620096371  0.6281259838858896  0.6235368515472463
  0.6233882151273616  0.6269469268919702  0.6267283035112788
  0.0022063559587995  0.7483151823852863  0.7483016779647818
  0.1247756902916762  0.8801414562946129  0.6258505596356012
  0.4991953693405056 -0.0026564169751311  0.7471102678217244
  0.7503064844525499 -0.0008672231756779  0.7489919933763357
  0.1264398597112900  0.1242817697413153  0.8735245680629504
  0.3730719936982061  0.1260831562442740  0.8758188684619608
  0.7517679109065608  0.2490822989164474  0.0016282486999154
  0.6212714371833009  0.1264659423207849  0.8745446555808082
 -0.0042178778630054  0.2474808338770998  0.0023454779984859
  0.2509283321292512  0.5021538777230586 -0.0046690135680160
  0.1263896081870391  0.3691247910696801  0.8740629497290192
  0.7511095236232765  0.4942506336196651 -0.0000543763163050
 -0.0009122469508534  0.4975429013141897 -0.0011087738337677
  0.2499952200500593  0.7512673904000932 -0.0041802724870513
  0.4974879093395735  0.7521138375231109 -0.0009282168253667
  0.6261077899859767  0.6274679658400028  0.8754714808815494
  0.0052180696804151  0.7514928177833944 -0.0019864389370162
  0.8716853254972330  0.6279188559781341  0.8765182653650170
  0.7497778939807013  0.0042357522556106  0.0025327397482979
  0.6253247608515036  0.8734941057117869  0.8748091512287747
  0.8747133884114190  0.8746334005868049  0.8763937436502266
  0.2486584657839053  0.2485827229300595  0.2535996628349665
  0.1273775596092620  0.1247438891419110  0.1225227130526210
  0.4996699975490587  0.2470867531047253  0.2515751490841253
  0.6209874667670502  0.1266999325618146  0.1241231683060926
  0.8760121639763507  0.1223545381628260  0.1247424220163976
  0.4993297837679979  0.4987191384188152  0.2513097474040135
  0.8749749293790813  0.3743879612689969  0.1259228115693195
  0.7489024057009136  0.7515769874725226  0.2525234194198024
  0.0025066930814696  0.7507082987034920  0.2525851578222908
  0.1238696519205744  0.8772601012112202  0.1232115172422305
  0.6259901073215220  0.8754710643000493  0.1233929339256810
  0.1240641145484718  0.1258180930768870  0.3762971222444955
  0.4967749161092982  0.2489409493057901  0.4984202600043057
  0.3754204434325046  0.1284215111562865  0.3734112673582305
  0.7511370366108199  0.2473866840751989  0.4970892011304554
  0.6240501712161890  0.1279574639100368  0.3762487870223723
  0.0018123717479001  0.2501119607674924  0.4972898762112385
  0.8758246204875508  0.1240434088698482  0.3789262101074524
  0.1251671040783837  0.3722080690333929  0.3754576088838996
  0.3766949763463188  0.3737847198608985  0.3729709081392003
  0.8751159236827778  0.3714537343560502  0.3787328520902530
  0.1249996878066281  0.6260754895727279  0.3740727999733827
  0.5007783054562782  0.7548618352403176  0.4995579908848976
  0.8749420932930764  0.6271937451154944  0.3731536295299026
  0.1221110173110644  0.8765215704725599  0.3756605595694041
  0.3756589176132308  0.8753750208481188  0.3752142781694472
  0.6265819989417208  0.8738403699075949  0.3747664977785727
 -0.0000596391022645 -0.0000742581290184  0.4979093312312348
  0.2504860212134324  0.2526140004656434  0.7477254805200709
  0.4982312710806650  0.2522058526260142  0.7509167948768293
  0.7503939860865615  0.2495919194893602  0.7536854542464037
 -0.0006581641885261  0.2495958067949026  0.7513301400793325
  0.1238035056820057  0.3706937251862260  0.6265086528565432
  0.3754365490316816  0.3723956149666200  0.6261001403064542
  0.1264732122853907  0.6253952761056376  0.6246648293423283
  0.4978031185266945  0.7522337514699479  0.7496820893273654
  0.7514595181311050  0.7512148345707047  0.7464311343313108
  0.8739382773894634  0.6250385752338968  0.6267632699498119
  0.2508619309501484 -0.0021544880794946  0.7501913055185974
  0.3751431440573794  0.8753308421158102  0.6255310875821910
  0.6242683327960696  0.8727235165967855  0.6257512238791824
 -0.0012194179842030 -0.0012547903932312  0.7510158342510254
  0.8768348578930673  0.8773744255458500  0.6258238534417505
  0.2495573624137376  0.2492541444025597 -0.0003983386411339
  0.5009339270787193  0.2510664843653070 -0.0009790830624241
  0.8768139433611396  0.1230773563265341  0.8724753638048519
  0.4990495197094590  0.4998290576091505 -0.0035977512174503
  0.3752229273077107  0.3717833826468757  0.8759931332530984
  0.6225815490366271  0.3726874036875441  0.8752478925192216
  0.8752695760284472  0.3719725532881357  0.8723521597401597
  0.1251410480901722  0.6246430964129688  0.8747790736708858
  0.3779581907205254  0.6253146331584108  0.8741964805974535
  0.7483556752071391  0.7519295912211953  0.0014539302803161
  0.2475948992672199 -0.0011976161111579 -0.0001017038782115
  0.1247898445226639  0.8807162720174858  0.8736105887792154
  0.5002874914356300 -0.0000014441474112  0.0006499719686725
  0.3748696514826028  0.8784192194497840  0.8738624691829668
  0.0005987260853570  0.0012959803655668  0.0013906806873748
 
  0.00000000E+00  0.00000000E+00  0.00000000E+00
  0.00000000E+00  0.00000000E+00  0.00000000E+00
  0.00000000E+00  0.00000000E+00  0.00000000E+00
  0.00000000E+00  0.00000000E+00  0.00000000E+00
  0.00000000E+00  0.00000000E+00  0.00000000E+00
  0.00000000E+00  0.00000000E+00  0.00000000E+00
  0.00000000E+00  0.00000000E+00  0.00000000E+00
  0.00000000E+00  0.00000000E+00  0.00000000E+00
  0.00000000E+00  0.00000000E+00  0.00000000E+00
  0.00000000E+00  0.00000000E+00  0.00000000E+00
  0.00000000E+00  0.00000000E+00  0.00000000E+00
  0.00000000E+00  0.00000000E+00  0.00000000E+00
  0.00000000E+00  0.00000000E+00  0.00000000E+00
  0.00000000E+00  0.00000000E+00  0.00000000E+00
  0.00000000E+00  0.00000000E+00  0.00000000E+00
  0.00000000E+00  0.00000000E+00  0.00000000E+00
  0.00000000E+00  0.00000000E+00  0.00000000E+00
  0.00000000E+00  0.00000000E+00  0.00000000E+00
  0.00000000E+00  0.00000000E+00  0.00000000E+00
  0.00000000E+00  0.00000000E+00  0.00000000E+00
  0.00000000E+00  0.00000000E+00  0.00000000E+00
  0.00000000E+00  0.00000000E+00  0.00000000E+00
  0.00000000E+00  0.00000000E+00  0.00000000E+00
  0.00000000E+00  0.00000000E+00  0.00000000E+00
  0.00000000E+00  0.00000000E+00  0.00000000E+00
  0.00000000E+00  0.00000000E+00  0.00000000E+00
  0.00000000E+00  0.00000000E+00  0.00000000E+00
  0.00000000E+00  0.00000000E+00  0.00000000E+00
  0.00000000E+00  0.00000000E+00  0.00000000E+00
  0.00000000E+00  0.00000000E+00  0.00000000E+00
  0.00000000E+00  0.00000000E+00  0.00000000E+00
  0.00000000E+00  0.00000000E+00  0.00000000E+00
  0.00000000E+00  0.00000000E+00  0.00000000E+00
  0.00000000E+00  0.00000000E+00  0.00000000E+00
  0.00000000E+00  0.00000000E+00  0.00000000E+00
  0.00000000E+00  0.00000000E+00  0.00000000E+00
  0.00000000E+00  0.00000000E+00  0.00000000E+00
  0.00000000E+00  0.00000000E+00  0.00000000E+00
  0.00000000E+00  0.00000000E+00  0.00000000E+00
  0.00000000E+00  0.00000000E+00  0.00000000E+00
  0.00000000E+00  0.00000000E+00  0.00000000E+00
  0.00000000E+00  0.00000000E+00  0.00000000E+00
  0.00000000E+00  0.00000000E+00  0.00000000E+00
  0.00000000E+00  0.00000000E+00  0.00000000E+00
  0.00000000E+00  0.00000000E+00  0.00000000E+00
  0.00000000E+00  0.00000000E+00  0.00000000E+00
  0.00000000E+00  0.00000000E+00  0.00000000E+00
  0.00000000E+00  0.00000000E+00  0.00000000E+00
  0.00000000E+00  0.00000000E+00  0.00000000E+00
  0.00000000E+00  0.00000000E+00  0.00000000E+00
  0.00000000E+00  0.00000000E+00  0.00000000E+00
  0.00000000E+00  0.00000000E+00  0.00000000E+00
  0.00000000E+00  0.00000000E+00  0.00000000E+00
  0.00000000E+00  0.00000000E+00  0.00000000E+00
  0.00000000E+00  0.00000000E+00  0.00000000E+00
  0.00000000E+00  0.00000000E+00  0.00000000E+00
  0.00000000E+00  0.00000000E+00  0.00000000E+00
  0.00000000E+00  0.00000000E+00  0.00000000E+00
  0.00000000E+00  0.00000000E+00  0.00000000E+00
  0.00000000E+00  0.00000000E+00  0.00000000E+00
  0.00000000E+00  0.00000000E+00  0.00000000E+00
  0.00000000E+00  0.00000000E+00  0.00000000E+00
  0.00000000E+00  0.00000000E+00  0.00000000E+00
  0.00000000E+00  0.00000000E+00  0.00000000E+00
  0.00000000E+00  0.00000000E+00  0.00000000E+00
  0.00000000E+00  0.00000000E+00  0.00000000E+00
  0.00000000E+00  0.00000000E+00  0.00000000E+00
  0.00000000E+00  0.00000000E+00  0.00000000E+00
  0.00000000E+00  0.00000000E+00  0.00000000E+00
  0.00000000E+00  0.00000000E+00  0.00000000E+00
  0.00000000E+00  0.00000000E+00  0.00000000E+00
  0.00000000E+00  0.00000000E+00  0.00000000E+00
  0.00000000E+00  0.00000000E+00  0.00000000E+00
  0.00000000E+00  0.00000000E+00  0.00000000E+00
  0.00000000E+00  0.00000000E+00  0.00000000E+00
  0.00000000E+00  0.00000000E+00  0.00000000E+00
  0.00000000E+00  0.00000000E+00  0.00000000E+00
  0.00000000E+00  0.00000000E+00  0.00000000E+00
  0.00000000E+00  0.00000000E+00  0.00000000E+00
  0.00000000E+00  0.00000000E+00  0.00000000E+00
  0.00000000E+00  0.00000000E+00  0.00000000E+00
  0.00000000E+00  0.00000000E+00  0.00000000E+00
  0.00000000E+00  0.00000000E+00  0.00000000E+00
  0.00000000E+00  0.00000000E+00  0.00000000E+00
  0.00000000E+00  0.00000000E+00  0.00000000E+00
  0.00000000E+00  0.00000000E+00  0.00000000E+00
  0.00000000E+00  0.00000000E+00  0.00000000E+00
  0.00000000E+00  0.00000000E+00  0.00000000E+00
  0.00000000E+00  0.00000000E+00  0.00000000E+00
  0.00000000E+00  0.00000000E+00  0.00000000E+00
  0.00000000E+00  0.00000000E+00  0.00000000E+00
  0.00000000E+00  0.00000000E+00  0.00000000E+00
  0.00000000E+00  0.00000000E+00  0.00000000E+00
  0.00000000E+00  0.00000000E+00  0.00000000E+00
  0.00000000E+00  0.00000000E+00  0.00000000E+00
  0.00000000E+00  0.00000000E+00  0.00000000E+00
  0.00000000E+00  0.00000000E+00  0.00000000E+00
  0.00000000E+00  0.00000000E+00  0.00000000E+00
  0.00000000E+00  0.00000000E+00  0.00000000E+00
  0.00000000E+00  0.00000000E+00  0.00000000E+00
  0.00000000E+00  0.00000000E+00  0.00000000E+00
  0.00000000E+00  0.00000000E+00  0.00000000E+00
  0.00000000E+00  0.00000000E+00  0.00000000E+00
  0.00000000E+00  0.00000000E+00  0.00000000E+00
  0.00000000E+00  0.00000000E+00  0.00000000E+00
  0.00000000E+00  0.00000000E+00  0.00000000E+00
  0.00000000E+00  0.00000000E+00  0.00000000E+00
  0.00000000E+00  0.00000000E+00  0.00000000E+00
  0.00000000E+00  0.00000000E+00  0.00000000E+00
  0.00000000E+00  0.00000000E+00  0.00000000E+00
  0.00000000E+00  0.00000000E+00  0.00000000E+00
  0.00000000E+00  0.00000000E+00  0.00000000E+00
  0.00000000E+00  0.00000000E+00  0.00000000E+00
  0.00000000E+00  0.00000000E+00  0.00000000E+00
  0.00000000E+00  0.00000000E+00  0.00000000E+00
  0.00000000E+00  0.00000000E+00  0.00000000E+00
  0.00000000E+00  0.00000000E+00  0.00000000E+00
  0.00000000E+00  0.00000000E+00  0.00000000E+00
  0.00000000E+00  0.00000000E+00  0.00000000E+00
  0.00000000E+00  0.00000000E+00  0.00000000E+00
  0.00000000E+00  0.00000000E+00  0.00000000E+00
  0.00000000E+00  0.00000000E+00  0.00000000E+00
  0.00000000E+00  0.00000000E+00  0.00000000E+00
  0.00000000E+00  0.00000000E+00  0.00000000E+00
  0.00000000E+00  0.00000000E+00  0.00000000E+00
  0.00000000E+00  0.00000000E+00  0.00000000E+00
  0.00000000E+00  0.00000000E+00  0.00000000E+00
  0.00000000E+00  0.00000000E+00  0.00000000E+00
