#BCC aalvarado POSCAR generator         
    12.76000000000000     
     1.0009704130661947   -0.0000509108885815    0.0000839276454358
    -0.0000509001192679    1.0011236405091111    0.0003073648339016
     0.0000839403076377    0.0003073243471273    1.0011461300025279
   Ta   W 
    25   103
Direct
  0.7487112048338938  0.7510501516627364  0.7490229581228899
  0.5000883273188984  0.7500999036118434  0.5006415094884200
  0.7503375230439351  0.5024279977313657  0.2499384898069808
  0.4999990754983645  0.5022654930096941  0.2516489846283201
  0.4991033670123187  0.7495566838772179  0.2510393091084285
  0.7469656506210989  0.2490197091779117  0.5001543360686032
  0.2501061989017412  0.2511361473347375  0.5014212066138615
  0.2509900652933650  0.4994891586260115  0.4995882439044707
  0.8757289594400860  0.6244525160129805  0.8761628550608558
  0.8760671868504563  0.3767331856675101  0.3763850123739673
  0.8752657886048788  0.3755237457917339  0.6265087434190585
  0.6271004940411047  0.8749430716696547  0.1227482030684295
  0.6254165468981672  0.3744179469744017  0.1232948666779284
  0.3731979030362465  0.3756657967516900  0.1240141719105069
  0.8749858782946319  0.1235452319113997  0.1233259098426023
  0.3758887014140272  0.1256250452482252  0.3765360576548168
  0.8746982060589559  0.1248536747979253  0.6274479694745729
  0.1245314143263980  0.6261316563015225  0.6259928550699131
  0.3740052570096250  0.1236968246071077  0.8734499715164001
  0.1251324571060245  0.6249474432762314  0.8754554598342993
  0.0005085514421408 -0.0019026263462070  0.4998116353712216
  0.4998176075187070 -0.0006729951376535  0.2501333183229518
  0.0018131838262988  0.2501393385154515  0.2489217671375699
  0.5005768032069892  0.2491215883359430 -0.0022490721195632
  0.2493630778894252 -0.0015299178134611  0.2488142920293983
  0.2488036884130475 -0.0013244104332467 -0.0001383766459224
  0.4996452424892826  0.5006355048478603  0.5012660595179145
  0.6245278464370650  0.6239454036263951  0.6257675253147433
  0.6269317836273610  0.6256720535505826  0.3772021709638784
  0.6246280690006060  0.3743427395345570  0.3762440770373232
  0.3753474368883168  0.3745111536780343  0.3747156504858481
  0.6239262165286793  0.3754828148013562  0.6265267544439893
  0.3764898207228888  0.3751154145051047  0.6269401790433842
  0.3730603810607478  0.6253071386631746  0.3753473951186012
  0.3749736303035971  0.6252342700072446  0.6271542910106953
  0.7500022743032968  0.7504206934021977  0.5001339610674744
  0.7484321287373312  0.5018035086192413  0.5003855940833992
  0.7477130221684428  0.5004379120677119  0.7503434223232764
  0.4998745114121052  0.5000445769992382  0.7498730755837233
  0.4998433094965268  0.7497789938631469  0.7498464712665629
  0.7517515928080507  0.7498675681547118  0.2506524789748592
  0.7504138755454417  0.2494174501198534  0.2505231956608512
  0.5003005091516315  0.2494153006377371  0.2505633401363982
  0.5001797544827302  0.2506406697772139  0.5014877885350024
  0.2482419548868319  0.2497392541620512  0.2501089028989499
  0.2491864157187938  0.5013745343901070  0.2505006561683012
  0.7485654629382226  0.2497747511446708  0.7514259840623563
  0.5001583443221678  0.2507128266014041  0.7491080027958004
  0.2494128463240957  0.2499375268158130  0.7495371156446341
  0.2521209680613961  0.4989087160248598  0.7502823354053170
  0.2490451705475322  0.7500257117071754  0.2495985020822477
  0.2506153997566357  0.7503128811091976  0.4994704263860921
  0.2515337150792678  0.7516679756925746  0.7504981892349248
  0.8758355092463890  0.8756127685364792  0.8756259307784966
  0.8749381813625912  0.8752033720744967  0.6249000834656000
  0.8753841941825893  0.6246693534091001  0.6246364312030732
  0.6243543394720317  0.6243372187361631  0.8748050705853754
  0.6244563343279231  0.8762762332698029  0.6255282856176653
  0.6241959556695372  0.8755784608095520  0.8750672475981301
  0.8751364881871757  0.8735164118817196  0.3742043135119220
  0.8762309600424605  0.6266027958180332  0.3750944481327317
  0.6279333651205985  0.8758529938721439  0.3759536584708320
  0.8752594037278214  0.3749609746440507  0.8747907355334368
  0.6257257172477423  0.3753857074411544  0.8737100145141555
  0.3741916427877382  0.3755274094176950  0.8739762372139036
  0.3750924854957182  0.6253053285987609  0.8750261598729017
  0.3730616590057493  0.8750157895327030  0.3771783718457776
  0.3743127944928432  0.8754745785133971  0.6268423892436048
  0.3746938231008150  0.8747837326395002  0.8743126322418019
  0.8757026909192783  0.8749222851113860  0.1249067792389788
  0.8765946379680691  0.6263713826291363  0.1243067094313052
  0.6260770071699596  0.6262371378827959  0.1224836701160248
  0.8756508894791830  0.3749499300717688  0.1234112611795122
  0.3728191070926375  0.6249682262821344  0.1229452420452966
  0.3738610923464972  0.8735670266416801  0.1219639805033313
  0.6272372701714704  0.1245315322816536  0.1243864290185044
  0.8739545494507821  0.1235614641293679  0.3739025649782409
  0.6245637638363257  0.1246733716879414  0.3756844748106740
  0.3740136700572474  0.1255710593159838  0.1236150806318860
  0.6240853901044618  0.1243122639913737  0.6260922467822356
  0.3756518201545337  0.1242606145796868  0.6262711818676567
  0.1240445005155085  0.1245535346974564  0.1226354733644542
  0.1254890963411009  0.1243516275146466  0.3748935258055607
  0.1258614798107376  0.3758938927253334  0.1235338195782618
  0.1243148358967662  0.3763775638092189  0.3740437523359702
  0.1250249563623477  0.1246007003239650  0.6273049469462784
  0.1242148163517939  0.3752256342458323  0.6272186252535248
  0.1247312254729289  0.6252267598938027  0.1249594553323592
  0.1238672097648872  0.6260431879780739  0.3741330576764730
  0.8751076205735121  0.1249133537959845  0.8754319192369008
  0.6254525305419946  0.1242280787151649  0.8735883747469585
  0.1248887279123305  0.1250297026747636  0.8749826476947854
  0.1246685627990804  0.3745419989272694  0.8754235080179336
  0.1240788533265667  0.8737825612974721  0.1238522950624980
  0.1240610521757318  0.8729714477977150  0.3746589351034764
  0.1259275985614503  0.8744814587437637  0.6259026970321765
  0.1251797488287369  0.8754221859925193  0.8751586318983083
  0.0006180924991150 -0.0008505208373927 -0.0012131645597417
  0.0008758364652749 -0.0001928025771405  0.7507078671428031
 -0.0007467717671384  0.7523590855449981  0.7494454744034960
  0.0005084812168576  0.7513923287006467  0.0021689548489929
  0.7503212819714213  0.7503828817074424 -0.0005667023630657
  0.7489552471100474 -0.0008546252434143  0.7506660760017443
  0.7509227671388351 -0.0002435208146428 -0.0018108138933466
 -0.0007540905921666  0.7511524638529098  0.4985780877776555
  0.7497892013342979 -0.0009734909579330  0.4996905040289276
  0.0009237344330768  0.5018827599298386  0.4994208528221996
  0.0000434333303940  0.4983666663833332  0.7508123787572705
  0.0003516032427521  0.4987950471881583  0.0016034291460782
  0.7504404207766362  0.5001246676103497 -0.0002643273143496
  0.4996939491603559  0.5014236694659726 -0.0022853105442618
  0.4989527724929239  0.7493613100263247 -0.0011562727499125
  0.5007982849372994 -0.0008052059406167  0.5013782089720579
  0.5000692734046253 -0.0007044760481643  0.7490929440052853
  0.5000651049496121 -0.0005720461797416 -0.0011781493690414
  0.0007562866050443 -0.0013533152898792  0.2503381617981659
  0.0003518462958929  0.7497842423462865  0.2500511580086871
  0.7502412458634762 -0.0005688596509190  0.2507282419739820
  0.0007790819930636  0.5014038561104849  0.2491186951270355
  0.0021269506818712  0.2486861886889229  0.4996504711726216
  0.0013983267794475  0.2493358550161528  0.7524211023097918
  0.0006502389878153  0.2501171846601722 -0.0007745727325262
  0.7505192859812565  0.2494959845028583 -0.0019749175066286
  0.2483319759984303  0.2497484243747755 -0.0008441427198560
  0.2496396929855778  0.5004607580821944 -0.0000334442904151
  0.2504224611808821  0.7505129550040832  0.0005299990798548
  0.2492440984441607 -0.0005112170764116  0.5009277217167488
  0.2496575279433458 -0.0007690671782312  0.7498539704432442
 
  0.00000000E+00  0.00000000E+00  0.00000000E+00
  0.00000000E+00  0.00000000E+00  0.00000000E+00
  0.00000000E+00  0.00000000E+00  0.00000000E+00
  0.00000000E+00  0.00000000E+00  0.00000000E+00
  0.00000000E+00  0.00000000E+00  0.00000000E+00
  0.00000000E+00  0.00000000E+00  0.00000000E+00
  0.00000000E+00  0.00000000E+00  0.00000000E+00
  0.00000000E+00  0.00000000E+00  0.00000000E+00
  0.00000000E+00  0.00000000E+00  0.00000000E+00
  0.00000000E+00  0.00000000E+00  0.00000000E+00
  0.00000000E+00  0.00000000E+00  0.00000000E+00
  0.00000000E+00  0.00000000E+00  0.00000000E+00
  0.00000000E+00  0.00000000E+00  0.00000000E+00
  0.00000000E+00  0.00000000E+00  0.00000000E+00
  0.00000000E+00  0.00000000E+00  0.00000000E+00
  0.00000000E+00  0.00000000E+00  0.00000000E+00
  0.00000000E+00  0.00000000E+00  0.00000000E+00
  0.00000000E+00  0.00000000E+00  0.00000000E+00
  0.00000000E+00  0.00000000E+00  0.00000000E+00
  0.00000000E+00  0.00000000E+00  0.00000000E+00
  0.00000000E+00  0.00000000E+00  0.00000000E+00
  0.00000000E+00  0.00000000E+00  0.00000000E+00
  0.00000000E+00  0.00000000E+00  0.00000000E+00
  0.00000000E+00  0.00000000E+00  0.00000000E+00
  0.00000000E+00  0.00000000E+00  0.00000000E+00
  0.00000000E+00  0.00000000E+00  0.00000000E+00
  0.00000000E+00  0.00000000E+00  0.00000000E+00
  0.00000000E+00  0.00000000E+00  0.00000000E+00
  0.00000000E+00  0.00000000E+00  0.00000000E+00
  0.00000000E+00  0.00000000E+00  0.00000000E+00
  0.00000000E+00  0.00000000E+00  0.00000000E+00
  0.00000000E+00  0.00000000E+00  0.00000000E+00
  0.00000000E+00  0.00000000E+00  0.00000000E+00
  0.00000000E+00  0.00000000E+00  0.00000000E+00
  0.00000000E+00  0.00000000E+00  0.00000000E+00
  0.00000000E+00  0.00000000E+00  0.00000000E+00
  0.00000000E+00  0.00000000E+00  0.00000000E+00
  0.00000000E+00  0.00000000E+00  0.00000000E+00
  0.00000000E+00  0.00000000E+00  0.00000000E+00
  0.00000000E+00  0.00000000E+00  0.00000000E+00
  0.00000000E+00  0.00000000E+00  0.00000000E+00
  0.00000000E+00  0.00000000E+00  0.00000000E+00
  0.00000000E+00  0.00000000E+00  0.00000000E+00
  0.00000000E+00  0.00000000E+00  0.00000000E+00
  0.00000000E+00  0.00000000E+00  0.00000000E+00
  0.00000000E+00  0.00000000E+00  0.00000000E+00
  0.00000000E+00  0.00000000E+00  0.00000000E+00
  0.00000000E+00  0.00000000E+00  0.00000000E+00
  0.00000000E+00  0.00000000E+00  0.00000000E+00
  0.00000000E+00  0.00000000E+00  0.00000000E+00
  0.00000000E+00  0.00000000E+00  0.00000000E+00
  0.00000000E+00  0.00000000E+00  0.00000000E+00
  0.00000000E+00  0.00000000E+00  0.00000000E+00
  0.00000000E+00  0.00000000E+00  0.00000000E+00
  0.00000000E+00  0.00000000E+00  0.00000000E+00
  0.00000000E+00  0.00000000E+00  0.00000000E+00
  0.00000000E+00  0.00000000E+00  0.00000000E+00
  0.00000000E+00  0.00000000E+00  0.00000000E+00
  0.00000000E+00  0.00000000E+00  0.00000000E+00
  0.00000000E+00  0.00000000E+00  0.00000000E+00
  0.00000000E+00  0.00000000E+00  0.00000000E+00
  0.00000000E+00  0.00000000E+00  0.00000000E+00
  0.00000000E+00  0.00000000E+00  0.00000000E+00
  0.00000000E+00  0.00000000E+00  0.00000000E+00
  0.00000000E+00  0.00000000E+00  0.00000000E+00
  0.00000000E+00  0.00000000E+00  0.00000000E+00
  0.00000000E+00  0.00000000E+00  0.00000000E+00
  0.00000000E+00  0.00000000E+00  0.00000000E+00
  0.00000000E+00  0.00000000E+00  0.00000000E+00
  0.00000000E+00  0.00000000E+00  0.00000000E+00
  0.00000000E+00  0.00000000E+00  0.00000000E+00
  0.00000000E+00  0.00000000E+00  0.00000000E+00
  0.00000000E+00  0.00000000E+00  0.00000000E+00
  0.00000000E+00  0.00000000E+00  0.00000000E+00
  0.00000000E+00  0.00000000E+00  0.00000000E+00
  0.00000000E+00  0.00000000E+00  0.00000000E+00
  0.00000000E+00  0.00000000E+00  0.00000000E+00
  0.00000000E+00  0.00000000E+00  0.00000000E+00
  0.00000000E+00  0.00000000E+00  0.00000000E+00
  0.00000000E+00  0.00000000E+00  0.00000000E+00
  0.00000000E+00  0.00000000E+00  0.00000000E+00
  0.00000000E+00  0.00000000E+00  0.00000000E+00
  0.00000000E+00  0.00000000E+00  0.00000000E+00
  0.00000000E+00  0.00000000E+00  0.00000000E+00
  0.00000000E+00  0.00000000E+00  0.00000000E+00
  0.00000000E+00  0.00000000E+00  0.00000000E+00
  0.00000000E+00  0.00000000E+00  0.00000000E+00
  0.00000000E+00  0.00000000E+00  0.00000000E+00
  0.00000000E+00  0.00000000E+00  0.00000000E+00
  0.00000000E+00  0.00000000E+00  0.00000000E+00
  0.00000000E+00  0.00000000E+00  0.00000000E+00
  0.00000000E+00  0.00000000E+00  0.00000000E+00
  0.00000000E+00  0.00000000E+00  0.00000000E+00
  0.00000000E+00  0.00000000E+00  0.00000000E+00
  0.00000000E+00  0.00000000E+00  0.00000000E+00
  0.00000000E+00  0.00000000E+00  0.00000000E+00
  0.00000000E+00  0.00000000E+00  0.00000000E+00
  0.00000000E+00  0.00000000E+00  0.00000000E+00
  0.00000000E+00  0.00000000E+00  0.00000000E+00
  0.00000000E+00  0.00000000E+00  0.00000000E+00
  0.00000000E+00  0.00000000E+00  0.00000000E+00
  0.00000000E+00  0.00000000E+00  0.00000000E+00
  0.00000000E+00  0.00000000E+00  0.00000000E+00
  0.00000000E+00  0.00000000E+00  0.00000000E+00
  0.00000000E+00  0.00000000E+00  0.00000000E+00
  0.00000000E+00  0.00000000E+00  0.00000000E+00
  0.00000000E+00  0.00000000E+00  0.00000000E+00
  0.00000000E+00  0.00000000E+00  0.00000000E+00
  0.00000000E+00  0.00000000E+00  0.00000000E+00
  0.00000000E+00  0.00000000E+00  0.00000000E+00
  0.00000000E+00  0.00000000E+00  0.00000000E+00
  0.00000000E+00  0.00000000E+00  0.00000000E+00
  0.00000000E+00  0.00000000E+00  0.00000000E+00
  0.00000000E+00  0.00000000E+00  0.00000000E+00
  0.00000000E+00  0.00000000E+00  0.00000000E+00
  0.00000000E+00  0.00000000E+00  0.00000000E+00
  0.00000000E+00  0.00000000E+00  0.00000000E+00
  0.00000000E+00  0.00000000E+00  0.00000000E+00
  0.00000000E+00  0.00000000E+00  0.00000000E+00
  0.00000000E+00  0.00000000E+00  0.00000000E+00
  0.00000000E+00  0.00000000E+00  0.00000000E+00
  0.00000000E+00  0.00000000E+00  0.00000000E+00
  0.00000000E+00  0.00000000E+00  0.00000000E+00
  0.00000000E+00  0.00000000E+00  0.00000000E+00
  0.00000000E+00  0.00000000E+00  0.00000000E+00
  0.00000000E+00  0.00000000E+00  0.00000000E+00
  0.00000000E+00  0.00000000E+00  0.00000000E+00
  0.00000000E+00  0.00000000E+00  0.00000000E+00
