#generated using str2pos                
    1.000000000000000     
    12.9372889564683717   -0.0244202630919328   -0.0013644544517700
    -0.0244257829563474   12.9220323538670208    0.0080132628386662
    -0.0013600379219033    0.0080129249072514   12.9317939583742945
   Ta   W 
    64    64
Direct
  0.3751741571081217  0.1277966442599267  0.1246993141050743
  0.8766708470260599  0.1259430042040771  0.1276823492831269
  0.1271318397040136  0.3725799409184993  0.1236242778407821
  0.3747813287228102  0.3746862129000605  0.1242536613819010
  0.6238759647167867  0.3763785817933771  0.1262343699903193
 -0.0030932286235139  0.5000651130217527  0.2466722012700313
  0.5009543320960086  0.7527806532219744  0.2484799835460452
  0.3759338511353379  0.6227880710589245  0.1236505674932715
  0.6238158618471868  0.6219856656026339  0.1246054888515186
 -0.0008641824733076  0.7458701756112581  0.2468425342951861
  0.1258478914312749  0.8768370789693135  0.1287419984795619
  0.5026800627653258 -0.0006719074342102  0.2471742755161473
  0.8740257387687032  0.8769000335771100  0.1284414692404126
  0.2495849546400538  0.2510847546200629  0.5055715680871600
  0.1244363882649564  0.1244924780627356  0.3722639902223630
  0.3756378051292714  0.1266497140938301  0.3734275099148089
  0.7505047649110277  0.2494877566322234  0.4998502533190202
 -0.0000288552310846  0.2531172004594425  0.5019974652873123
  0.8766147841256823  0.1242175347424567  0.3724730001451604
  0.2490626325795837  0.4982570763673636  0.5029600531700470
  0.1250434785919263  0.3745011381958544  0.3717970960506739
  0.5002896288380138  0.5005979239056648  0.5021249842623844
  0.3766711986706115  0.3737313964637750  0.3714377356696463
  0.6249989244564842  0.3746861963691803  0.3724539762878102
  0.2483984756005934  0.7485475123282532  0.5020695114121148
  0.1240491535547329  0.6248078495981554  0.3758570483572665
  0.3744753341404722  0.6251728070700745  0.3727583978433637
  0.7476290626955161  0.7482960873690272  0.5029278652893052
  0.8729677899745095  0.6236654422105199  0.3766265639888457
  0.2507983564514994  0.0034806605857201  0.5046228406999361
  0.1238441649680079  0.8766007999110005  0.3751966725739689
  0.3747758718358451  0.8759727711042683  0.3766826288022112
  0.7464731423677949  0.0009541125642254  0.5006234832778135
  0.6251508984973202  0.8748281138487741  0.3755206808727190
  0.8754578832989313  0.8751455970483804  0.3746113015844237
  0.2505866471962497  0.2477842827542437  0.7485869909859354
  0.7517291961258882  0.2526409471538003  0.7490337794861517
  0.8765464115099179  0.1228801913043625  0.6272500943737193
  0.5021360110390632  0.5010533672537538  0.7481142059514250
  0.7518907532096182  0.5012368031319687  0.7501465842253934
  0.6250777864526164  0.3735335639481301  0.6229486968159916
  0.3744341038827698  0.6285313568550099  0.6280954759983588
  0.7490783981617888  0.7453317497091767  0.7487776734292709
  0.2505526897978715  0.0030889942581957  0.7527766281080217
  0.1219363580453833  0.8732606697887451  0.6258343022410678
  0.3773719129942815  0.8742510312524865  0.6268299504919691
  0.8778991663580686  0.8755443033915831  0.6257594579446027
  0.7512586676475832  0.2508759593478377  0.0007633752627069
  0.6227478829688433  0.1236195955735085  0.8737090102211127
  0.8772420356853149  0.1246408135439958  0.8731039225360541
  0.1258525418595137  0.3756744197822838  0.8756625093748319
  0.3747775622726909  0.3755196420074970  0.8779256623328555
  0.6223860985830085  0.3740562613394193  0.8776744031648650
 -0.0038495271929514  0.5009504612979503  0.0003376514467790
  0.2497391943190299  0.7536634753537316 -0.0000067588350637
  0.1269107743814041  0.6230167047633615  0.8714430478380577
  0.3740400422973534  0.6248692304624025  0.8755025868008073
  0.7499595805037612  0.7476765917138649 -0.0012692408740698
 -0.0002712367363862  0.7473874707895617 -0.0000827504904779
  0.2508260651656500 -0.0003473838551038 -0.0029167618338250
  0.7476253594321360  0.0001071366693458  0.0021703346334660
  0.6224081824574134  0.8762084908459402  0.8738341999318849
  0.0048300582564679  0.0009180128164031 -0.0012567453282569
  0.8749014273244409  0.8765471066986358  0.8716769203107960
  0.2495628434701309  0.2494754739303540  0.2488647045692367
  0.1261723228663027  0.1274783754747013  0.1265010204248017
  0.5026074926105434  0.2474575751308594  0.2497490800857458
  0.7504603199255191  0.2504768506400845  0.2500703365054058
  0.6242381915771709  0.1267257214068523  0.1250403375914138
 -0.0013907003106704  0.2519446200380877  0.2491978004611649
  0.2481572021943619  0.5005663567929192  0.2495337023299147
  0.5017759330621476  0.5014334910676974  0.2512839725700063
  0.7519794882687693  0.4988149790388507  0.2499297508561433
  0.8736509609129194  0.3734084724881247  0.1256457769454127
  0.2501332150586290  0.7501235490979963  0.2478106758317678
  0.1281088770925193  0.6231214364084984  0.1245694942744100
  0.7480666155875177  0.7481497523102721  0.2499558736625842
  0.8702002850480512  0.6232978492521987  0.1258072881482997
  0.2518118490536636  0.0004370659462066  0.2476784212434066
  0.3749590466258060  0.8757967079414807  0.1244931512783430
  0.7464437406574069  0.0013778752697289  0.2501397080882429
  0.6252005397147213  0.8741679432462369  0.1242784568666972
  0.0007615585012268  0.0007841899288132  0.2486571566528842
  0.5001463249561771  0.2488604404274189  0.5013145045767465
  0.6243352466908904  0.1264028309365197  0.3743878848522421
  0.7507464830561503  0.5005437113236206  0.5008975299246425
 -0.0011588470873231  0.4981183251169969  0.5023042858924679
  0.8729799249313501  0.3759023439785554  0.3742124898477708
  0.5029171512411936  0.7489586375858266  0.5003618218567815
  0.6258451024908132  0.6235073004773446  0.3732395192342052
 -0.0014450963495480  0.7467429371546986  0.5016768721690785
  0.5019105936429898  0.0019835925236140  0.5015018774583803
  0.0008952256236059  0.0019772208955359  0.5017008748669853
  0.1227204831410666  0.1244508692161586  0.6265669013793441
  0.4978188987763100  0.2481423306911755  0.7485046024739948
  0.3790956756059073  0.1245506657437081  0.6256081791126283
  0.6228822339518877  0.1243222581635034  0.6259026395525658
  0.0022375128313612  0.2516983165104927  0.7491771954514096
  0.2489564376547293  0.4979128831967368  0.7474286408724442
  0.1228617027501242  0.3771966939893324  0.6275459456448804
  0.3758941226393583  0.3742153404131436  0.6267144076393674
 -0.0024149828415726  0.4995549750435864  0.7488628341821351
  0.8769655568880693  0.3769016173286207  0.6247759069504856
  0.2493387491664668  0.7517077598086472  0.7518998845852475
  0.1228481836320969  0.6250595265346227  0.6273428169594993
  0.5019782118163192  0.7507267167552247  0.7505302712545089
  0.6246409009388213  0.6255425049280517  0.6238909639192101
 -0.0004477577177906  0.7473501128851120  0.7506675029141098
  0.8776701004697541  0.6238168584424222  0.6233780261149690
  0.4983346966800046  0.0005698221905771  0.7497554574576635
  0.7476229861048753 -0.0003864236877467  0.7479071853459485
  0.6223033632546811  0.8759740633009848  0.6262498252060535
  0.0038013034442287  0.0007663800310326  0.7516314178962034
  0.2494095585521618  0.2466261431806616 -0.0022753328676344
  0.1242758901236742  0.1278479537320227  0.8757750069669377
  0.5002031281270081  0.2479183867353185 -0.0001762505371313
  0.3778039252489003  0.1263279346458676  0.8763421279837285
 -0.0000708840520052  0.2511071156690635 -0.0007006206977439
  0.2485035433499127  0.5011694105670498 -0.0000408520369814
  0.5011399837842404  0.5007047334041035 -0.0017151934075524
  0.7525667698930170  0.5001282028293231 -0.0014997685241026
  0.8770987025853453  0.3746370500435627  0.8749975361251765
  0.4997811678226853  0.7521724030303680 -0.0003083897094957
  0.6224758113308053  0.6251415435250416  0.8773036534542553
  0.8759927270657254  0.6239375374780117  0.8732468965550559
  0.1248964711142311  0.8737807089843436  0.8722410764632067
  0.4981733330264302 -0.0006264382476831  0.0004141857898917
  0.3781751551427824  0.8742629758996823  0.8738686255083736
 
  0.00000000E+00  0.00000000E+00  0.00000000E+00
  0.00000000E+00  0.00000000E+00  0.00000000E+00
  0.00000000E+00  0.00000000E+00  0.00000000E+00
  0.00000000E+00  0.00000000E+00  0.00000000E+00
  0.00000000E+00  0.00000000E+00  0.00000000E+00
  0.00000000E+00  0.00000000E+00  0.00000000E+00
  0.00000000E+00  0.00000000E+00  0.00000000E+00
  0.00000000E+00  0.00000000E+00  0.00000000E+00
  0.00000000E+00  0.00000000E+00  0.00000000E+00
  0.00000000E+00  0.00000000E+00  0.00000000E+00
  0.00000000E+00  0.00000000E+00  0.00000000E+00
  0.00000000E+00  0.00000000E+00  0.00000000E+00
  0.00000000E+00  0.00000000E+00  0.00000000E+00
  0.00000000E+00  0.00000000E+00  0.00000000E+00
  0.00000000E+00  0.00000000E+00  0.00000000E+00
  0.00000000E+00  0.00000000E+00  0.00000000E+00
  0.00000000E+00  0.00000000E+00  0.00000000E+00
  0.00000000E+00  0.00000000E+00  0.00000000E+00
  0.00000000E+00  0.00000000E+00  0.00000000E+00
  0.00000000E+00  0.00000000E+00  0.00000000E+00
  0.00000000E+00  0.00000000E+00  0.00000000E+00
  0.00000000E+00  0.00000000E+00  0.00000000E+00
  0.00000000E+00  0.00000000E+00  0.00000000E+00
  0.00000000E+00  0.00000000E+00  0.00000000E+00
  0.00000000E+00  0.00000000E+00  0.00000000E+00
  0.00000000E+00  0.00000000E+00  0.00000000E+00
  0.00000000E+00  0.00000000E+00  0.00000000E+00
  0.00000000E+00  0.00000000E+00  0.00000000E+00
  0.00000000E+00  0.00000000E+00  0.00000000E+00
  0.00000000E+00  0.00000000E+00  0.00000000E+00
  0.00000000E+00  0.00000000E+00  0.00000000E+00
  0.00000000E+00  0.00000000E+00  0.00000000E+00
  0.00000000E+00  0.00000000E+00  0.00000000E+00
  0.00000000E+00  0.00000000E+00  0.00000000E+00
  0.00000000E+00  0.00000000E+00  0.00000000E+00
  0.00000000E+00  0.00000000E+00  0.00000000E+00
  0.00000000E+00  0.00000000E+00  0.00000000E+00
  0.00000000E+00  0.00000000E+00  0.00000000E+00
  0.00000000E+00  0.00000000E+00  0.00000000E+00
  0.00000000E+00  0.00000000E+00  0.00000000E+00
  0.00000000E+00  0.00000000E+00  0.00000000E+00
  0.00000000E+00  0.00000000E+00  0.00000000E+00
  0.00000000E+00  0.00000000E+00  0.00000000E+00
  0.00000000E+00  0.00000000E+00  0.00000000E+00
  0.00000000E+00  0.00000000E+00  0.00000000E+00
  0.00000000E+00  0.00000000E+00  0.00000000E+00
  0.00000000E+00  0.00000000E+00  0.00000000E+00
  0.00000000E+00  0.00000000E+00  0.00000000E+00
  0.00000000E+00  0.00000000E+00  0.00000000E+00
  0.00000000E+00  0.00000000E+00  0.00000000E+00
  0.00000000E+00  0.00000000E+00  0.00000000E+00
  0.00000000E+00  0.00000000E+00  0.00000000E+00
  0.00000000E+00  0.00000000E+00  0.00000000E+00
  0.00000000E+00  0.00000000E+00  0.00000000E+00
  0.00000000E+00  0.00000000E+00  0.00000000E+00
  0.00000000E+00  0.00000000E+00  0.00000000E+00
  0.00000000E+00  0.00000000E+00  0.00000000E+00
  0.00000000E+00  0.00000000E+00  0.00000000E+00
  0.00000000E+00  0.00000000E+00  0.00000000E+00
  0.00000000E+00  0.00000000E+00  0.00000000E+00
  0.00000000E+00  0.00000000E+00  0.00000000E+00
  0.00000000E+00  0.00000000E+00  0.00000000E+00
  0.00000000E+00  0.00000000E+00  0.00000000E+00
  0.00000000E+00  0.00000000E+00  0.00000000E+00
  0.00000000E+00  0.00000000E+00  0.00000000E+00
  0.00000000E+00  0.00000000E+00  0.00000000E+00
  0.00000000E+00  0.00000000E+00  0.00000000E+00
  0.00000000E+00  0.00000000E+00  0.00000000E+00
  0.00000000E+00  0.00000000E+00  0.00000000E+00
  0.00000000E+00  0.00000000E+00  0.00000000E+00
  0.00000000E+00  0.00000000E+00  0.00000000E+00
  0.00000000E+00  0.00000000E+00  0.00000000E+00
  0.00000000E+00  0.00000000E+00  0.00000000E+00
  0.00000000E+00  0.00000000E+00  0.00000000E+00
  0.00000000E+00  0.00000000E+00  0.00000000E+00
  0.00000000E+00  0.00000000E+00  0.00000000E+00
  0.00000000E+00  0.00000000E+00  0.00000000E+00
  0.00000000E+00  0.00000000E+00  0.00000000E+00
  0.00000000E+00  0.00000000E+00  0.00000000E+00
  0.00000000E+00  0.00000000E+00  0.00000000E+00
  0.00000000E+00  0.00000000E+00  0.00000000E+00
  0.00000000E+00  0.00000000E+00  0.00000000E+00
  0.00000000E+00  0.00000000E+00  0.00000000E+00
  0.00000000E+00  0.00000000E+00  0.00000000E+00
  0.00000000E+00  0.00000000E+00  0.00000000E+00
  0.00000000E+00  0.00000000E+00  0.00000000E+00
  0.00000000E+00  0.00000000E+00  0.00000000E+00
  0.00000000E+00  0.00000000E+00  0.00000000E+00
  0.00000000E+00  0.00000000E+00  0.00000000E+00
  0.00000000E+00  0.00000000E+00  0.00000000E+00
  0.00000000E+00  0.00000000E+00  0.00000000E+00
  0.00000000E+00  0.00000000E+00  0.00000000E+00
  0.00000000E+00  0.00000000E+00  0.00000000E+00
  0.00000000E+00  0.00000000E+00  0.00000000E+00
  0.00000000E+00  0.00000000E+00  0.00000000E+00
  0.00000000E+00  0.00000000E+00  0.00000000E+00
  0.00000000E+00  0.00000000E+00  0.00000000E+00
  0.00000000E+00  0.00000000E+00  0.00000000E+00
  0.00000000E+00  0.00000000E+00  0.00000000E+00
  0.00000000E+00  0.00000000E+00  0.00000000E+00
  0.00000000E+00  0.00000000E+00  0.00000000E+00
  0.00000000E+00  0.00000000E+00  0.00000000E+00
  0.00000000E+00  0.00000000E+00  0.00000000E+00
  0.00000000E+00  0.00000000E+00  0.00000000E+00
  0.00000000E+00  0.00000000E+00  0.00000000E+00
  0.00000000E+00  0.00000000E+00  0.00000000E+00
  0.00000000E+00  0.00000000E+00  0.00000000E+00
  0.00000000E+00  0.00000000E+00  0.00000000E+00
  0.00000000E+00  0.00000000E+00  0.00000000E+00
  0.00000000E+00  0.00000000E+00  0.00000000E+00
  0.00000000E+00  0.00000000E+00  0.00000000E+00
  0.00000000E+00  0.00000000E+00  0.00000000E+00
  0.00000000E+00  0.00000000E+00  0.00000000E+00
  0.00000000E+00  0.00000000E+00  0.00000000E+00
  0.00000000E+00  0.00000000E+00  0.00000000E+00
  0.00000000E+00  0.00000000E+00  0.00000000E+00
  0.00000000E+00  0.00000000E+00  0.00000000E+00
  0.00000000E+00  0.00000000E+00  0.00000000E+00
  0.00000000E+00  0.00000000E+00  0.00000000E+00
  0.00000000E+00  0.00000000E+00  0.00000000E+00
  0.00000000E+00  0.00000000E+00  0.00000000E+00
  0.00000000E+00  0.00000000E+00  0.00000000E+00
  0.00000000E+00  0.00000000E+00  0.00000000E+00
  0.00000000E+00  0.00000000E+00  0.00000000E+00
  0.00000000E+00  0.00000000E+00  0.00000000E+00
  0.00000000E+00  0.00000000E+00  0.00000000E+00
  0.00000000E+00  0.00000000E+00  0.00000000E+00
  0.00000000E+00  0.00000000E+00  0.00000000E+00
