#BCC aalvarado POSCAR generator         
    12.76000000000000     
     1.0276268470046914    0.0005486829857546   -0.0001905744646616
     0.0005488250008378    1.0274046665123713    0.0004791365187554
    -0.0001908178340305    0.0004792388896170    1.0268233497916479
   Ta   W 
   102    26
Direct
  0.6271494495054913  0.6252337746395121  0.6266670410591002
  0.6246940270472170  0.3760190247091107  0.3751568812303467
  0.3735811235469458  0.3755461585046563  0.3769124025082803
  0.6251780418854695  0.3749881265586264  0.6249666918722147
  0.3729553435338669  0.3774815900641794  0.6241327259897452
  0.3725744371782604  0.6229922370591280  0.3781678858349439
  0.3740359313854186  0.6236020813911326  0.6222527062395029
  0.7541494026277298  0.7504668398013455  0.7538916329635135
  0.7558087280532257  0.7500274127419525  0.4970794632342164
  0.7532751753701571  0.5024614077346704  0.4990651344010714
  0.7512840506730571  0.4985271493803203  0.7549939507175529
  0.4997888927337450  0.4995963888795375  0.7538059432633065
  0.4997778164379787  0.7514199977922181  0.5003178271313949
  0.7541935299134185  0.5038430521461188  0.2494452840229010
  0.4970390063174124  0.5013593469757577  0.2472848566937694
  0.4972611332077270  0.7485775080187612  0.2481471273993459
  0.7488034021258103  0.2474078279227114  0.2522654160755239
  0.4998883462257138  0.2483377442007030  0.2524484434205818
  0.7494522342364300  0.2480590858509781  0.4997353993123681
  0.2457486256313332  0.2516805342881471  0.2505072896380640
  0.2481493341079592  0.4998598485852799  0.2492735965571425
  0.7490796812480218  0.2521008354343799  0.7539826524907729
  0.4989413072684943  0.2487182758164900  0.7524041202480117
  0.2509672546007998  0.2470148490801723  0.7480062839478221
  0.2497237121771076  0.5041644314195813  0.7498864970829835
  0.2510179786261839  0.7471565584095812  0.2477601057521394
  0.2463845367956838  0.7489688939388364  0.5011827090614933
  0.2495645202604541  0.7477004509408332  0.7492388794428864
  0.8798298773569679  0.8748251868422360  0.6255029225593609
  0.8783574990603453  0.6251639804239110  0.6291705491790255
  0.6260854528274344  0.6262744882405504  0.8757430567527952
  0.6264104329024579  0.8749419479862742  0.6261499358908758
  0.6239790560367384  0.8731789869215836  0.8755770188914503
  0.6244856426583751  0.8727920647740504  0.3748315624817865
  0.8745767884258063  0.3727627894879660  0.3753509448358123
  0.8773012723902607  0.3773247704414005  0.6259997747138539
  0.3706303591188224  0.3766873971764520  0.8765069929579904
  0.3710437098796850  0.8776863093094969  0.3751019401997385
  0.3722661925943240  0.8758964304102764  0.6229602504528797
  0.3741019696291964  0.8750848197880223  0.8742849768160923
  0.8788482982028643  0.8725600731170318  0.1244464529419169
  0.6259509424764407  0.6245427422430281  0.1240580103007139
  0.6256282345727207  0.8740336508573932  0.1242594140693832
  0.8744540924386897  0.3736742095513763  0.1262294406026507
  0.6247005652261480  0.3753537920266229  0.1260713241217496
  0.3725233932857711  0.3743473268996993  0.1228849373543754
  0.3725292984352551  0.8784263646358668  0.1270745505914090
  0.8735874903794953  0.1247778279716908  0.1246487377829025
  0.6254680305316695  0.1245568265078498  0.1250215586501764
  0.8793073997849333  0.1236434092528858  0.3776164133790747
  0.3743594990678059  0.1236334825437955  0.1288187047553621
  0.3696169956703236  0.1216858312254051  0.3741435581741998
  0.8761715138850165  0.1236295547071781  0.6238585267553555
  0.6271431136781761  0.1251677116678711  0.6258608619587250
  0.1261879062292591  0.1192169176733009  0.3765530877441348
  0.1253988162045317  0.3783374728004856  0.1212036379756213
  0.1248784377739517  0.3791128002700624  0.6266299920523463
  0.1230546393354714  0.6260831665564170  0.1219371561298118
  0.1259373594273170  0.6266667784078649  0.3730017665680624
  0.8766517944500059  0.1252248003673853  0.8747562205899473
  0.1226381598651862  0.1257439353048297  0.8745237147547549
  0.1254377686542904  0.3792018481820635  0.8740415243308600
  0.1215683628046680  0.6256604765376651  0.8753105395214544
  0.1236563822283511  0.8718127693770971  0.1252909347731004
  0.1260053374088221  0.8770314771532526  0.3739837140780415
  0.1237342618620820  0.8762551018125466  0.6234092829390684
  0.1234439849149496  0.8717080923857835  0.8741772963278576
  0.0005682042538205 -0.0002724374221562  0.0001588432405210
  0.0013536296287236  0.0006835107916516  0.7501905953970374
  0.7543586429337139  0.7483138215149752 -0.0003692398266190
  0.7508714744550276 -0.0005834553256264  0.7527351170374345
  0.7505736350129147 -0.0012862554557652 -0.0026576454489327
  0.0003000443913218  0.7478973294527961  0.4980462322027921
  0.7502526212979960 -0.0015716311698056  0.4977632489782061
  0.0009003527746343  0.5024333924097850  0.4972186855723048
 -0.0052498376205125  0.5013290490149536 -0.0007277176888128
  0.7526445299079476  0.4999378176725023 -0.0016857915111688
  0.4991697647332847  0.5005383203264705 -0.0014565069425939
  0.4961661847809082  0.7470039224120543  0.0004079308713357
  0.5005519097324492  0.0026465132384310  0.5008299012881315
  0.4978780181541252  0.0047913932977009  0.7507423644377528
  0.4996416190193413  0.0032395578331039 -0.0032684272494332
 -0.0007536934633534 -0.0009246651679939  0.2487005887785868
  0.7514854298086752 -0.0025825805803580  0.2533624623353302
 -0.0007278876886913  0.5010141370231526  0.2508929790374780
  0.5028000947655124  0.0006004792015262  0.2523922070479167
  0.0037036162714390  0.2497379892441281  0.2498221267839402
  0.0044862474331190  0.2513522114085506  0.5006845753374999
  0.0008679613115218  0.2506095383750832  0.7494390138500582
 -0.0005613962678596  0.2514078980846337 -0.0002711396872500
  0.7478742379515515  0.2520224639959863 -0.0039209813678412
  0.5004449900675357  0.2491708184065236 -0.0040245373451348
  0.2490196811051129  0.2466774241415824 -0.0004996760144366
  0.2522657437661615  0.7483151712767769 -0.0006850232710401
  0.2510214715635500  0.0041170280676926  0.7490414848203325
  0.2489590175864609  0.0023719381403268 -0.0014286614295287
  0.5009862656993640  0.4992082334742750  0.5009295935910102
  0.6238831120309559  0.6249575278935235  0.3745960484242692
  0.4979259255018306  0.7486359887354308  0.7513586797654411
  0.7549425243006519  0.7480357553808549  0.2504074294108715
  0.4981654908208103  0.2461771768131157  0.5012724270596143
  0.2479380212704797  0.2491823863324567  0.5021298205566780
  0.2460018275542904  0.4999452080100685  0.5000549756275939
  0.8786013489933339  0.8729921662330061  0.8751718022698626
  0.8791718201285169  0.6264725905894767  0.8737470613311494
  0.8794103844065361  0.8749238322487043  0.3746246601438983
  0.8779470381344516  0.6258768420907184  0.3740886420757726
  0.8771189431247661  0.3764388568430541  0.8739520303300217
  0.6236912286742181  0.3762567973876184  0.8755167669453136
  0.3725472168928275  0.6237262981802508  0.8749259091231463
  0.8782699594290787  0.6272707380440198  0.1240127507473083
  0.3723370144210041  0.6233560860373961  0.1238592737795735
  0.6247610783260248  0.1240862865871130  0.3760573624724853
  0.3738875722990532  0.1247257050664512  0.6229181657833046
  0.1254365594652692  0.1234652775534323  0.1262219200757630
  0.1258219443552535  0.3761740221889072  0.3763482965595596
  0.1243887289482120  0.1233883929951528  0.6225994839781511
  0.1235626390186955  0.6248465714176091  0.6263074846056539
  0.6261509103773193  0.1246567720383154  0.8749429976717359
  0.3736012240450646  0.1261381659471361  0.8753708916389742
  0.0003987810912358  0.7498918404124137  0.7503982373932025
 -0.0020854106545522  0.7485456976504939 -0.0013255934524448
  0.0005758308462598 -0.0013662847006465  0.4999482734027522
 -0.0004497083779130  0.5017668036089923  0.7510247802967851
 -0.0016852878355583  0.7488441414906315  0.2506281891804932
  0.2502455663581674  0.5024826817944033 -0.0007462748500658
  0.2474814432605433  0.0001220324743839  0.2483073804160079
  0.2496863450316552  0.0017656648491710  0.5029472918665392
 
  0.00000000E+00  0.00000000E+00  0.00000000E+00
  0.00000000E+00  0.00000000E+00  0.00000000E+00
  0.00000000E+00  0.00000000E+00  0.00000000E+00
  0.00000000E+00  0.00000000E+00  0.00000000E+00
  0.00000000E+00  0.00000000E+00  0.00000000E+00
  0.00000000E+00  0.00000000E+00  0.00000000E+00
  0.00000000E+00  0.00000000E+00  0.00000000E+00
  0.00000000E+00  0.00000000E+00  0.00000000E+00
  0.00000000E+00  0.00000000E+00  0.00000000E+00
  0.00000000E+00  0.00000000E+00  0.00000000E+00
  0.00000000E+00  0.00000000E+00  0.00000000E+00
  0.00000000E+00  0.00000000E+00  0.00000000E+00
  0.00000000E+00  0.00000000E+00  0.00000000E+00
  0.00000000E+00  0.00000000E+00  0.00000000E+00
  0.00000000E+00  0.00000000E+00  0.00000000E+00
  0.00000000E+00  0.00000000E+00  0.00000000E+00
  0.00000000E+00  0.00000000E+00  0.00000000E+00
  0.00000000E+00  0.00000000E+00  0.00000000E+00
  0.00000000E+00  0.00000000E+00  0.00000000E+00
  0.00000000E+00  0.00000000E+00  0.00000000E+00
  0.00000000E+00  0.00000000E+00  0.00000000E+00
  0.00000000E+00  0.00000000E+00  0.00000000E+00
  0.00000000E+00  0.00000000E+00  0.00000000E+00
  0.00000000E+00  0.00000000E+00  0.00000000E+00
  0.00000000E+00  0.00000000E+00  0.00000000E+00
  0.00000000E+00  0.00000000E+00  0.00000000E+00
  0.00000000E+00  0.00000000E+00  0.00000000E+00
  0.00000000E+00  0.00000000E+00  0.00000000E+00
  0.00000000E+00  0.00000000E+00  0.00000000E+00
  0.00000000E+00  0.00000000E+00  0.00000000E+00
  0.00000000E+00  0.00000000E+00  0.00000000E+00
  0.00000000E+00  0.00000000E+00  0.00000000E+00
  0.00000000E+00  0.00000000E+00  0.00000000E+00
  0.00000000E+00  0.00000000E+00  0.00000000E+00
  0.00000000E+00  0.00000000E+00  0.00000000E+00
  0.00000000E+00  0.00000000E+00  0.00000000E+00
  0.00000000E+00  0.00000000E+00  0.00000000E+00
  0.00000000E+00  0.00000000E+00  0.00000000E+00
  0.00000000E+00  0.00000000E+00  0.00000000E+00
  0.00000000E+00  0.00000000E+00  0.00000000E+00
  0.00000000E+00  0.00000000E+00  0.00000000E+00
  0.00000000E+00  0.00000000E+00  0.00000000E+00
  0.00000000E+00  0.00000000E+00  0.00000000E+00
  0.00000000E+00  0.00000000E+00  0.00000000E+00
  0.00000000E+00  0.00000000E+00  0.00000000E+00
  0.00000000E+00  0.00000000E+00  0.00000000E+00
  0.00000000E+00  0.00000000E+00  0.00000000E+00
  0.00000000E+00  0.00000000E+00  0.00000000E+00
  0.00000000E+00  0.00000000E+00  0.00000000E+00
  0.00000000E+00  0.00000000E+00  0.00000000E+00
  0.00000000E+00  0.00000000E+00  0.00000000E+00
  0.00000000E+00  0.00000000E+00  0.00000000E+00
  0.00000000E+00  0.00000000E+00  0.00000000E+00
  0.00000000E+00  0.00000000E+00  0.00000000E+00
  0.00000000E+00  0.00000000E+00  0.00000000E+00
  0.00000000E+00  0.00000000E+00  0.00000000E+00
  0.00000000E+00  0.00000000E+00  0.00000000E+00
  0.00000000E+00  0.00000000E+00  0.00000000E+00
  0.00000000E+00  0.00000000E+00  0.00000000E+00
  0.00000000E+00  0.00000000E+00  0.00000000E+00
  0.00000000E+00  0.00000000E+00  0.00000000E+00
  0.00000000E+00  0.00000000E+00  0.00000000E+00
  0.00000000E+00  0.00000000E+00  0.00000000E+00
  0.00000000E+00  0.00000000E+00  0.00000000E+00
  0.00000000E+00  0.00000000E+00  0.00000000E+00
  0.00000000E+00  0.00000000E+00  0.00000000E+00
  0.00000000E+00  0.00000000E+00  0.00000000E+00
  0.00000000E+00  0.00000000E+00  0.00000000E+00
  0.00000000E+00  0.00000000E+00  0.00000000E+00
  0.00000000E+00  0.00000000E+00  0.00000000E+00
  0.00000000E+00  0.00000000E+00  0.00000000E+00
  0.00000000E+00  0.00000000E+00  0.00000000E+00
  0.00000000E+00  0.00000000E+00  0.00000000E+00
  0.00000000E+00  0.00000000E+00  0.00000000E+00
  0.00000000E+00  0.00000000E+00  0.00000000E+00
  0.00000000E+00  0.00000000E+00  0.00000000E+00
  0.00000000E+00  0.00000000E+00  0.00000000E+00
  0.00000000E+00  0.00000000E+00  0.00000000E+00
  0.00000000E+00  0.00000000E+00  0.00000000E+00
  0.00000000E+00  0.00000000E+00  0.00000000E+00
  0.00000000E+00  0.00000000E+00  0.00000000E+00
  0.00000000E+00  0.00000000E+00  0.00000000E+00
  0.00000000E+00  0.00000000E+00  0.00000000E+00
  0.00000000E+00  0.00000000E+00  0.00000000E+00
  0.00000000E+00  0.00000000E+00  0.00000000E+00
  0.00000000E+00  0.00000000E+00  0.00000000E+00
  0.00000000E+00  0.00000000E+00  0.00000000E+00
  0.00000000E+00  0.00000000E+00  0.00000000E+00
  0.00000000E+00  0.00000000E+00  0.00000000E+00
  0.00000000E+00  0.00000000E+00  0.00000000E+00
  0.00000000E+00  0.00000000E+00  0.00000000E+00
  0.00000000E+00  0.00000000E+00  0.00000000E+00
  0.00000000E+00  0.00000000E+00  0.00000000E+00
  0.00000000E+00  0.00000000E+00  0.00000000E+00
  0.00000000E+00  0.00000000E+00  0.00000000E+00
  0.00000000E+00  0.00000000E+00  0.00000000E+00
  0.00000000E+00  0.00000000E+00  0.00000000E+00
  0.00000000E+00  0.00000000E+00  0.00000000E+00
  0.00000000E+00  0.00000000E+00  0.00000000E+00
  0.00000000E+00  0.00000000E+00  0.00000000E+00
  0.00000000E+00  0.00000000E+00  0.00000000E+00
  0.00000000E+00  0.00000000E+00  0.00000000E+00
  0.00000000E+00  0.00000000E+00  0.00000000E+00
  0.00000000E+00  0.00000000E+00  0.00000000E+00
  0.00000000E+00  0.00000000E+00  0.00000000E+00
  0.00000000E+00  0.00000000E+00  0.00000000E+00
  0.00000000E+00  0.00000000E+00  0.00000000E+00
  0.00000000E+00  0.00000000E+00  0.00000000E+00
  0.00000000E+00  0.00000000E+00  0.00000000E+00
  0.00000000E+00  0.00000000E+00  0.00000000E+00
  0.00000000E+00  0.00000000E+00  0.00000000E+00
  0.00000000E+00  0.00000000E+00  0.00000000E+00
  0.00000000E+00  0.00000000E+00  0.00000000E+00
  0.00000000E+00  0.00000000E+00  0.00000000E+00
  0.00000000E+00  0.00000000E+00  0.00000000E+00
  0.00000000E+00  0.00000000E+00  0.00000000E+00
  0.00000000E+00  0.00000000E+00  0.00000000E+00
  0.00000000E+00  0.00000000E+00  0.00000000E+00
  0.00000000E+00  0.00000000E+00  0.00000000E+00
  0.00000000E+00  0.00000000E+00  0.00000000E+00
  0.00000000E+00  0.00000000E+00  0.00000000E+00
  0.00000000E+00  0.00000000E+00  0.00000000E+00
  0.00000000E+00  0.00000000E+00  0.00000000E+00
  0.00000000E+00  0.00000000E+00  0.00000000E+00
  0.00000000E+00  0.00000000E+00  0.00000000E+00
  0.00000000E+00  0.00000000E+00  0.00000000E+00
  0.00000000E+00  0.00000000E+00  0.00000000E+00
  0.00000000E+00  0.00000000E+00  0.00000000E+00
