#BCC aalvarado POSCAR generator         
    12.76000000000000     
     1.0083973521173752    0.0001981361669014    0.0001281538826257
     0.0001981653765352    1.0086947096125318    0.0001115179266480
     0.0001281316320072    0.0001114879841278    1.0089559785526814
   Ta   W 
    51    77
Direct
  0.6232000813443602  0.6218341865705168  0.6260640306698886
  0.3754844915975316  0.3756077100974454  0.3775896906663193
  0.3738284938127428  0.6234335809565150  0.3765577630343289
  0.7485632354318411  0.7534249882295163  0.7504135585573786
  0.7483996063394222  0.7498990696923803  0.4961016492083207
  0.5003188035022457  0.7509118969288179  0.4989769247971997
  0.7510311492407473  0.7489974993654359  0.2500980099430791
  0.5017064368201434  0.5005822232709239  0.2494407054565695
  0.2518832497681472  0.2485509480120772  0.2496282784794869
  0.7488867067005430  0.2491262523321412  0.7525249162568256
  0.4979475252363362  0.2500293344801604  0.7502709190140441
  0.2516962757830215  0.2508958964491167  0.7495075867238747
  0.2487836446042480  0.7499256238907299  0.2513800460715375
  0.2510012112365868  0.7489696784205923  0.7491981212013298
  0.8737402672998068  0.8785984336855500  0.6235916702101052
  0.8729099711926884  0.6215248355797346  0.6238974329217652
  0.8737036330450114  0.6240536290787856  0.8783932763496419
  0.6253757119127388  0.6231578063536622  0.8744960017059360
  0.8740469163493014  0.3755324848227522  0.3742551051950987
  0.8738298995951608  0.3748949304034072  0.6239166078071484
  0.6244833089524851  0.3758837646413708  0.8776494589737105
  0.3738169038960317  0.8757098715225236  0.6259085336521935
  0.6244313600140092  0.8755974692759592  0.1229158694372644
  0.6265078784450115  0.3740765904586351  0.1242557787943175
  0.3773311437249749  0.8776744074052439  0.1248073392144374
  0.8743278299726702  0.1253185730805696  0.1248790530118604
  0.8748071379028084  0.1263873404993779  0.3739713708466786
  0.6251781657950780  0.1271070773564186  0.3747696665391889
  0.3776136490488082  0.1251754667060805  0.1226498136448614
  0.8734915865549137  0.1245978728467832  0.6240700258859564
  0.6249206164875403  0.1250222991555522  0.6240261904124433
  0.1243158304876340  0.1250456256873753  0.3768032923878025
  0.1242138505121091  0.3760329087594312  0.1265352797919032
  0.1253405264399619  0.3765740596075451  0.3749939855679188
  0.1266748004540043  0.1238813798849954  0.8754966883751586
  0.1241645528303472  0.6240685289882437  0.8759962096834306
  0.1229837729368858  0.8765766961743787  0.1230149279274582
  0.1255139792159413  0.8774942105518149  0.8775806422164421
 -0.0003413500608890  0.0003335140057418  0.7501669031097763
  0.0011289686277120  0.7505794431116685  0.7482158943908651
  0.0011477029304901  0.7502800531011692  0.4974048225088419
  0.0026309460217431  0.4980966788668151  0.7501816304506737
  0.4997657602337408  0.7492723662924639 -0.0013680596466270
  0.4980067451191420 -0.0006117688133520  0.4994709388547421
 -0.0010656005088508  0.7488710172801332  0.2511106949891981
  0.7498362813977277 -0.0021501454481112  0.2483604712738958
  0.0025408402770167  0.2502845976189421  0.5026649955258923
 -0.0010351891081359  0.2508595120978147 -0.0007803390883312
  0.2522141277985905  0.4999365085376296  0.0000922241974925
  0.2528177870017795  0.7468595191534509  0.0002441768658160
  0.2499981977095973  0.0002962566902574  0.2524788847519789
  0.4998124671910116  0.4988165708036078  0.5011308269161755
  0.6244052450053118  0.6227521929714684  0.3747016887970865
  0.6255569017693170  0.3736799993803828  0.3746550377389725
  0.6240370669848143  0.3759962059201586  0.6240005174443681
  0.3750082231991274  0.3759706453234165  0.6242853664817170
  0.3752031847947963  0.6231693287925980  0.6249497447890658
  0.7475879820913939  0.4999810363610835  0.4972380846313876
  0.7493291866181180  0.4972562532234203  0.7506648052557108
  0.4968949290278469  0.4983758040250164  0.7497306711917440
  0.4987093409629670  0.7504301391979947  0.7506162363791137
  0.7499695388918242  0.5015783047995795  0.2496107247003161
  0.5008486433744130  0.7483764220223791  0.2500240965431443
  0.7487559536133861  0.2510109994118448  0.2482702330616427
  0.5001504701266968  0.2510227448214423  0.2498066765634278
  0.7476164112550081  0.2522213486434651  0.5001267124326502
  0.4985335442764916  0.2505117799523292  0.5011063542850904
  0.2511637632158726  0.2497565988965285  0.5033608123724312
  0.2502680215241588  0.5016709056783462  0.2489274788987852
  0.2498870413555871  0.5005543809084003  0.5031310969349850
  0.2509573957775609  0.4986506707401481  0.7497472758822493
  0.2484387744305808  0.7496740481296126  0.5004947129804559
  0.8737392723318040  0.8757972709094727  0.8768321702661068
  0.6235853502928200  0.8763207664161857  0.6265394702255042
  0.6249560469105816  0.8766891820657958  0.8752654706414730
  0.8756253862789947  0.8772146922177915  0.3746716629699887
  0.8751297472097563  0.6211906617148474  0.3733729871179612
  0.6235653947911775  0.8761083003128958  0.3724905780799829
  0.8737871666365029  0.3755333105553271  0.8761719024300376
  0.3764274626652439  0.3751216690313418  0.8750376675731317
  0.3772611068213622  0.6229407063178692  0.8731057492156927
  0.3745457786133190  0.8743722251950569  0.3756937520698992
  0.3765946818229954  0.8773956851478395  0.8733122101093028
  0.8753166036581049  0.8755094686872977  0.1223482435252777
  0.8747877968661307  0.6234597186905547  0.1237425089069936
  0.6268110564639470  0.6237395936249565  0.1239554485384985
  0.8741004351482425  0.3755906388486167  0.1260641503401889
  0.3768732517813853  0.3732242008388839  0.1246528638474399
  0.3767622526170433  0.6242892944883760  0.1265116165998783
  0.6246501507183634  0.1262044971267381  0.1240709524701475
  0.3763815757597522  0.1265461069964249  0.3754040423746934
  0.3744085086403057  0.1245652566209618  0.6251372989324312
  0.1244794078420261  0.1251453722742754  0.1241628432737528
  0.1261917295411107  0.1250603809859841  0.6251765569717573
  0.1269283361376586  0.3756225382449483  0.6245716824153045
  0.1228458256678357  0.6233300246601652  0.1260080679923725
  0.1258540915059502  0.6229339797249385  0.3761411946158496
  0.1271877524683895  0.6231147646894863  0.6233357303460408
  0.8740026891717159  0.1245876105279807  0.8764619704329359
  0.6243595431271705  0.1237243809435080  0.8760791174621525
  0.3754028432907363  0.1243767829369217  0.8765586239234830
  0.1258096503917523  0.3739380460772038  0.8756355783149965
  0.1249492140083061  0.8765059024970419  0.3759708639024080
  0.1271072847067741  0.8767393994823144  0.6236741932703843
 -0.0025039917245922  0.0010500340942392 -0.0001105318210758
 -0.0018409895788178  0.7499603294593643  0.0023414197159679
  0.7500118866767485  0.7508738733290445  0.0009278352915644
  0.7483955972869950  0.0000320980522639  0.7527112446433328
  0.7494029951382640  0.0003942527013795 -0.0017113260350811
  0.0021677886138765 -0.0014014414891421  0.5000834090131239
  0.7478642893175730 -0.0025809424363311  0.4981595962195443
  0.0020404301947588  0.5018024781413427  0.4997060782464657
 -0.0004570291344055  0.4985639926759350  0.0013641440944844
  0.7512887516887438  0.4995415718434800  0.0028763609156251
  0.4981764716301265  0.5002581907571680  0.0009411189273742
  0.4998465629147560  0.0005260090073500  0.7512242468195678
  0.5018869237973532  0.0011167864095108 -0.0032685662457871
 -0.0003350776807103 -0.0019556094428008  0.2499553921606812
 -0.0014441868830559  0.5029398445081930  0.2491914744237083
  0.5004386931421666  0.0004970480461453  0.2509373691795023
  0.0004011444098031  0.2508475694150308  0.2479245923966287
  0.0013470916764034  0.2509457975367353  0.7518379677877740
  0.7509517928602709  0.2491984154308810 -0.0008277698421186
  0.5000347877837960  0.2489445886984550 -0.0010213041462043
  0.2510163065388402  0.2519192817345705 -0.0012630019218603
  0.2503370074419387  0.0001192229130681  0.5004666070346414
  0.2513238010621178  0.0014320178602684  0.7487277015209456
  0.2519880515300047  0.0015430781814420 -0.0007800406325121
 
  0.00000000E+00  0.00000000E+00  0.00000000E+00
  0.00000000E+00  0.00000000E+00  0.00000000E+00
  0.00000000E+00  0.00000000E+00  0.00000000E+00
  0.00000000E+00  0.00000000E+00  0.00000000E+00
  0.00000000E+00  0.00000000E+00  0.00000000E+00
  0.00000000E+00  0.00000000E+00  0.00000000E+00
  0.00000000E+00  0.00000000E+00  0.00000000E+00
  0.00000000E+00  0.00000000E+00  0.00000000E+00
  0.00000000E+00  0.00000000E+00  0.00000000E+00
  0.00000000E+00  0.00000000E+00  0.00000000E+00
  0.00000000E+00  0.00000000E+00  0.00000000E+00
  0.00000000E+00  0.00000000E+00  0.00000000E+00
  0.00000000E+00  0.00000000E+00  0.00000000E+00
  0.00000000E+00  0.00000000E+00  0.00000000E+00
  0.00000000E+00  0.00000000E+00  0.00000000E+00
  0.00000000E+00  0.00000000E+00  0.00000000E+00
  0.00000000E+00  0.00000000E+00  0.00000000E+00
  0.00000000E+00  0.00000000E+00  0.00000000E+00
  0.00000000E+00  0.00000000E+00  0.00000000E+00
  0.00000000E+00  0.00000000E+00  0.00000000E+00
  0.00000000E+00  0.00000000E+00  0.00000000E+00
  0.00000000E+00  0.00000000E+00  0.00000000E+00
  0.00000000E+00  0.00000000E+00  0.00000000E+00
  0.00000000E+00  0.00000000E+00  0.00000000E+00
  0.00000000E+00  0.00000000E+00  0.00000000E+00
  0.00000000E+00  0.00000000E+00  0.00000000E+00
  0.00000000E+00  0.00000000E+00  0.00000000E+00
  0.00000000E+00  0.00000000E+00  0.00000000E+00
  0.00000000E+00  0.00000000E+00  0.00000000E+00
  0.00000000E+00  0.00000000E+00  0.00000000E+00
  0.00000000E+00  0.00000000E+00  0.00000000E+00
  0.00000000E+00  0.00000000E+00  0.00000000E+00
  0.00000000E+00  0.00000000E+00  0.00000000E+00
  0.00000000E+00  0.00000000E+00  0.00000000E+00
  0.00000000E+00  0.00000000E+00  0.00000000E+00
  0.00000000E+00  0.00000000E+00  0.00000000E+00
  0.00000000E+00  0.00000000E+00  0.00000000E+00
  0.00000000E+00  0.00000000E+00  0.00000000E+00
  0.00000000E+00  0.00000000E+00  0.00000000E+00
  0.00000000E+00  0.00000000E+00  0.00000000E+00
  0.00000000E+00  0.00000000E+00  0.00000000E+00
  0.00000000E+00  0.00000000E+00  0.00000000E+00
  0.00000000E+00  0.00000000E+00  0.00000000E+00
  0.00000000E+00  0.00000000E+00  0.00000000E+00
  0.00000000E+00  0.00000000E+00  0.00000000E+00
  0.00000000E+00  0.00000000E+00  0.00000000E+00
  0.00000000E+00  0.00000000E+00  0.00000000E+00
  0.00000000E+00  0.00000000E+00  0.00000000E+00
  0.00000000E+00  0.00000000E+00  0.00000000E+00
  0.00000000E+00  0.00000000E+00  0.00000000E+00
  0.00000000E+00  0.00000000E+00  0.00000000E+00
  0.00000000E+00  0.00000000E+00  0.00000000E+00
  0.00000000E+00  0.00000000E+00  0.00000000E+00
  0.00000000E+00  0.00000000E+00  0.00000000E+00
  0.00000000E+00  0.00000000E+00  0.00000000E+00
  0.00000000E+00  0.00000000E+00  0.00000000E+00
  0.00000000E+00  0.00000000E+00  0.00000000E+00
  0.00000000E+00  0.00000000E+00  0.00000000E+00
  0.00000000E+00  0.00000000E+00  0.00000000E+00
  0.00000000E+00  0.00000000E+00  0.00000000E+00
  0.00000000E+00  0.00000000E+00  0.00000000E+00
  0.00000000E+00  0.00000000E+00  0.00000000E+00
  0.00000000E+00  0.00000000E+00  0.00000000E+00
  0.00000000E+00  0.00000000E+00  0.00000000E+00
  0.00000000E+00  0.00000000E+00  0.00000000E+00
  0.00000000E+00  0.00000000E+00  0.00000000E+00
  0.00000000E+00  0.00000000E+00  0.00000000E+00
  0.00000000E+00  0.00000000E+00  0.00000000E+00
  0.00000000E+00  0.00000000E+00  0.00000000E+00
  0.00000000E+00  0.00000000E+00  0.00000000E+00
  0.00000000E+00  0.00000000E+00  0.00000000E+00
  0.00000000E+00  0.00000000E+00  0.00000000E+00
  0.00000000E+00  0.00000000E+00  0.00000000E+00
  0.00000000E+00  0.00000000E+00  0.00000000E+00
  0.00000000E+00  0.00000000E+00  0.00000000E+00
  0.00000000E+00  0.00000000E+00  0.00000000E+00
  0.00000000E+00  0.00000000E+00  0.00000000E+00
  0.00000000E+00  0.00000000E+00  0.00000000E+00
  0.00000000E+00  0.00000000E+00  0.00000000E+00
  0.00000000E+00  0.00000000E+00  0.00000000E+00
  0.00000000E+00  0.00000000E+00  0.00000000E+00
  0.00000000E+00  0.00000000E+00  0.00000000E+00
  0.00000000E+00  0.00000000E+00  0.00000000E+00
  0.00000000E+00  0.00000000E+00  0.00000000E+00
  0.00000000E+00  0.00000000E+00  0.00000000E+00
  0.00000000E+00  0.00000000E+00  0.00000000E+00
  0.00000000E+00  0.00000000E+00  0.00000000E+00
  0.00000000E+00  0.00000000E+00  0.00000000E+00
  0.00000000E+00  0.00000000E+00  0.00000000E+00
  0.00000000E+00  0.00000000E+00  0.00000000E+00
  0.00000000E+00  0.00000000E+00  0.00000000E+00
  0.00000000E+00  0.00000000E+00  0.00000000E+00
  0.00000000E+00  0.00000000E+00  0.00000000E+00
  0.00000000E+00  0.00000000E+00  0.00000000E+00
  0.00000000E+00  0.00000000E+00  0.00000000E+00
  0.00000000E+00  0.00000000E+00  0.00000000E+00
  0.00000000E+00  0.00000000E+00  0.00000000E+00
  0.00000000E+00  0.00000000E+00  0.00000000E+00
  0.00000000E+00  0.00000000E+00  0.00000000E+00
  0.00000000E+00  0.00000000E+00  0.00000000E+00
  0.00000000E+00  0.00000000E+00  0.00000000E+00
  0.00000000E+00  0.00000000E+00  0.00000000E+00
  0.00000000E+00  0.00000000E+00  0.00000000E+00
  0.00000000E+00  0.00000000E+00  0.00000000E+00
  0.00000000E+00  0.00000000E+00  0.00000000E+00
  0.00000000E+00  0.00000000E+00  0.00000000E+00
  0.00000000E+00  0.00000000E+00  0.00000000E+00
  0.00000000E+00  0.00000000E+00  0.00000000E+00
  0.00000000E+00  0.00000000E+00  0.00000000E+00
  0.00000000E+00  0.00000000E+00  0.00000000E+00
  0.00000000E+00  0.00000000E+00  0.00000000E+00
  0.00000000E+00  0.00000000E+00  0.00000000E+00
  0.00000000E+00  0.00000000E+00  0.00000000E+00
  0.00000000E+00  0.00000000E+00  0.00000000E+00
  0.00000000E+00  0.00000000E+00  0.00000000E+00
  0.00000000E+00  0.00000000E+00  0.00000000E+00
  0.00000000E+00  0.00000000E+00  0.00000000E+00
  0.00000000E+00  0.00000000E+00  0.00000000E+00
  0.00000000E+00  0.00000000E+00  0.00000000E+00
  0.00000000E+00  0.00000000E+00  0.00000000E+00
  0.00000000E+00  0.00000000E+00  0.00000000E+00
  0.00000000E+00  0.00000000E+00  0.00000000E+00
  0.00000000E+00  0.00000000E+00  0.00000000E+00
  0.00000000E+00  0.00000000E+00  0.00000000E+00
  0.00000000E+00  0.00000000E+00  0.00000000E+00
  0.00000000E+00  0.00000000E+00  0.00000000E+00
  0.00000000E+00  0.00000000E+00  0.00000000E+00
  0.00000000E+00  0.00000000E+00  0.00000000E+00
