#generated using str2pos                
    1.000000000000000     
    12.7756130077165313    0.0014639060270307   -0.0016954831889025
     0.0014635241059013   12.7760696816516557    0.0001043151551732
    -0.0016947203480873    0.0001039327617691   12.7797498413095063
   Ta   W 
    26   102
Direct
  0.2501374425734879  0.2499296025443236  0.2500165429711412
  0.4998187293477607  0.2503239806021448  0.2500213786160316
  0.7487561145840881  0.4990685826629610  0.2507921574348677
  0.8748008041461411  0.6267366713660641  0.1251333482683337
  0.2500869424705672  0.0001562619135303  0.2498666586243539
  0.8749332795062341  0.1249174508568505  0.3750874143258994
 -0.0011090432826217  0.4984531642272536  0.4970535334119272
  0.2502871007948592  0.7503538873595353  0.4981211019039504
  0.4988683451670242  0.7473112235750065  0.4983293211051469
  0.6263731020586079  0.8758259093467371  0.3738017430183153
  0.8750304945875595  0.8759500941972111  0.3747214649365913
  0.1260344270701847  0.3731164902773939  0.6254527149352171
  0.3754230657689260  0.3739986287698824  0.6251265504678545
  0.7492731431333010  0.4977335180050492  0.7499782046787163
  0.2498789636327765  0.7502713960253844  0.7521204102899217
  0.1235434210815722  0.6239080330703397  0.6254725100023585
  0.8748238757703113  0.6263048745743807  0.6248491824986029
  0.3761930788156660  0.8778763506685543  0.6262401439011424
  0.6258897436360473  0.8764978100664210  0.6255438374358480
  0.1250063899154796  0.1246193942479445  0.8747256097404285
  0.3751412095702107  0.1250088873682231  0.8746418962491165
  0.6249374413533715  0.1251829599286875  0.8749913146529370
  0.2501449170033685  0.5003755141213997  0.0009333811775533
  0.0013849327544123  0.4991897834423107  0.0000634743050460
  0.6237667311212266  0.6254047540650355  0.8762246652899089
  0.8752141756250204  0.8757859507333028  0.8754132671173124
  0.1231280265370189  0.1243909836656414  0.1235250882660626
  0.3760130261084660  0.1239253797966014  0.1230071494186535
  0.7493597627966859  0.2509420110932418  0.2493086603620869
  0.6261796724938320  0.1242098577817487  0.1240823691207245
  0.0006650583416309  0.2503835641044290  0.2490683301066161
  0.8745922236650441  0.1250097074570495  0.1250212301703995
  0.2504149341300945  0.5000862910391185  0.2492814862670616
  0.1243044323645622  0.3741982479156552  0.1257106195447097
  0.4999106008068666  0.4999059315979803  0.2499796183577390
  0.3759379144896935  0.3762716775250806  0.1244122014617272
  0.6251404610859933  0.3746356530620856  0.1239712799007713
  0.0004246186391370  0.4996027765753450  0.2500949149589118
  0.8746162596105763  0.3733845523897316  0.1247054099826976
  0.2500287550286893  0.7501786045198364  0.2494181632169073
  0.1253843067125089  0.6268097778332019  0.1264435731449584
  0.4989677287494002  0.7491088827722269  0.2485266165901786
  0.3756124562392819  0.6262200599155373  0.1256567324470718
  0.7493218119765916  0.7491387382140245  0.2488343312429484
  0.6239937437256160  0.6260107108280053  0.1242194904475780
  0.0016309633664723  0.7504096964441720  0.2492521870333327
  0.1247663753480970  0.8746098907609532  0.1243758866403602
  0.4990980542577503  0.0006970041683518  0.2488530566910132
  0.3756206127051761  0.8740076153953714  0.1239317336171114
  0.7495281259117100  0.0010837505318321  0.2477018549454421
  0.6246904312941218  0.8754998699056661  0.1249759612057251
  0.0017089535158356  0.0001144951669316  0.2486740923021915
  0.8748910407460837  0.8756931688000892  0.1244786409383974
  0.2502329994838695  0.2484565577825678  0.4982897168685740
  0.1234805827507368  0.1248412924269673  0.3764124693652984
  0.5010433442960770  0.2500203370272283  0.4990132055351846
  0.3756124021719245  0.1249000203681121  0.3769657297294201
  0.7491764357878183  0.2505591498779535  0.5006637552699377
  0.6259252388142064  0.1249243598120289  0.3757258608375684
 -0.0005235855254745  0.2494188988479600  0.4998842636189754
  0.2507837583677248  0.5001454208817981  0.4973649829040481
  0.1249762171565105  0.3746442491455351  0.3746810299986172
  0.5005451222225648  0.4997293033063428  0.4990880886167319
  0.3753317870055848  0.3762610449678785  0.3763814322276967
  0.7488233695319410  0.4982883478042139  0.4991891634788110
  0.6249320706676623  0.3748902598452581  0.3761782848162379
  0.8745407421147098  0.3728630224893928  0.3746631787053221
  0.1253825227052629  0.6248849580870738  0.3730120537059776
  0.3748836361163445  0.6231471995855534  0.3723705017619699
  0.7497426447654453  0.7487070233422490  0.4997431763274697
  0.6242139779781772  0.6245469239733724  0.3743308291791714
  0.0009321054035831  0.7508727743498241  0.4986397495421422
  0.8746476404788622  0.6263792217000156  0.3745522112011702
  0.2491771313676567  0.0010147343017716  0.4985962977219282
  0.1233210497790999  0.8751349104517429  0.3740928394995388
  0.4993574932730082  0.0026997974242185  0.4989479647477828
  0.3755805238973426  0.8754743527068983  0.3733704065392504
  0.7504808439709235  0.0025611677353983  0.5012334319891683
  0.0014628622462944  0.0006216674100531  0.5012123995569578
  0.2498230134190268  0.2496812802935395  0.7498583115713031
  0.1244479927939682  0.1248229162172381  0.6252536741235076
  0.5011456333750508  0.2508676580470564  0.7492902463441584
  0.3752667755412698  0.1254852524473447  0.6252420711020075
  0.7508657596788906  0.2505194309715611  0.7495998124387785
  0.6257252347207054  0.1252580639318431  0.6253253673339019
 -0.0016717947738006  0.2489762065640063  0.7503762923528120
  0.8749576962655913  0.1249267463879130  0.6246892951442776
  0.2511810724466466  0.5006011452660561  0.7528708455862593
  0.5004354178996322  0.4994132449730733  0.7503104377698734
  0.6240676788980808  0.3734729076489272  0.6243706009369332
 -0.0012514229127518  0.4987498819849199  0.7522084782313857
  0.8745799555811311  0.3728439324270532  0.6251967177564759
  0.4991563108192666  0.7491179641640316  0.7516544405469413
  0.3756233287942921  0.6223181064113810  0.6255276372883207
  0.7502139871275261  0.7499296736663037  0.7507694958853498
  0.6255624477416326  0.6247241527816392  0.6253501892096647
  0.0009692458238079  0.7515256851906977  0.7512811821801780
  0.2489950699892671 -0.0005850622355651  0.7495319295689288
  0.1238135961546761  0.8768845018553496  0.6251438808968931
  0.5004063748292991  0.0007141851953240  0.7505064501337712
  0.7512734045141538  0.0015853583999081  0.7499834359376513
 -0.0001015296569830  0.0005795343979076  0.7489408917450918
  0.8748160926272899  0.8757278284650699  0.6256912508021899
  0.2498318951189164  0.2515169413193807  0.0015831032512158
  0.5007976861529823  0.2512273236754725  0.0016306900654730
  0.7508461287431240  0.2499135163114429  0.0005093707493654
 -0.0012377013280497  0.2504082797895962  0.0006362534735027
  0.8749855216847061  0.1247019494690022  0.8747545395180512
  0.1248250060296746  0.3729621806529377  0.8740930224566101
  0.4985883546292105  0.4999423364027207  0.0010367538093822
  0.3759196476253150  0.3743498847090467  0.8742261319125635
  0.7497235931387786  0.4982974858340922  0.0004265378507374
  0.6247302817577008  0.3742466390202150  0.8755668377074141
  0.8747048096408224  0.3729202796188813  0.8752526621151585
  0.2505396492632537  0.7497190519147837  0.0006178935895024
  0.1250349296865390  0.6257770078870641  0.8752375713186152
  0.4992030553885906  0.7505964293000901  0.0015343568003047
  0.3766781419635179  0.6248876155565792  0.8762321833895557
  0.7488212732078614  0.7514813197552889  0.0010395411516758
  0.0014558556094172  0.7505068307527422  0.0006623168836941
  0.8743120309143110  0.6265293409843209  0.8751983868682767
  0.2501369575423411 -0.0014233958261557  0.0018535353128885
  0.1238306606374024  0.8761368076056835  0.8763143838413806
  0.5002731489905439 -0.0014922572121378  0.0014808077524154
  0.3754495549955844  0.8757177167060568  0.8764530624396712
  0.7500504849995756  0.0006627230865287  0.0012502722376177
  0.6256777924950514  0.8750888689095799  0.8755487329521019
 -0.0001121962652140  0.0003674593969642  0.0010525881813200
 
  0.00000000E+00  0.00000000E+00  0.00000000E+00
  0.00000000E+00  0.00000000E+00  0.00000000E+00
  0.00000000E+00  0.00000000E+00  0.00000000E+00
  0.00000000E+00  0.00000000E+00  0.00000000E+00
  0.00000000E+00  0.00000000E+00  0.00000000E+00
  0.00000000E+00  0.00000000E+00  0.00000000E+00
  0.00000000E+00  0.00000000E+00  0.00000000E+00
  0.00000000E+00  0.00000000E+00  0.00000000E+00
  0.00000000E+00  0.00000000E+00  0.00000000E+00
  0.00000000E+00  0.00000000E+00  0.00000000E+00
  0.00000000E+00  0.00000000E+00  0.00000000E+00
  0.00000000E+00  0.00000000E+00  0.00000000E+00
  0.00000000E+00  0.00000000E+00  0.00000000E+00
  0.00000000E+00  0.00000000E+00  0.00000000E+00
  0.00000000E+00  0.00000000E+00  0.00000000E+00
  0.00000000E+00  0.00000000E+00  0.00000000E+00
  0.00000000E+00  0.00000000E+00  0.00000000E+00
  0.00000000E+00  0.00000000E+00  0.00000000E+00
  0.00000000E+00  0.00000000E+00  0.00000000E+00
  0.00000000E+00  0.00000000E+00  0.00000000E+00
  0.00000000E+00  0.00000000E+00  0.00000000E+00
  0.00000000E+00  0.00000000E+00  0.00000000E+00
  0.00000000E+00  0.00000000E+00  0.00000000E+00
  0.00000000E+00  0.00000000E+00  0.00000000E+00
  0.00000000E+00  0.00000000E+00  0.00000000E+00
  0.00000000E+00  0.00000000E+00  0.00000000E+00
  0.00000000E+00  0.00000000E+00  0.00000000E+00
  0.00000000E+00  0.00000000E+00  0.00000000E+00
  0.00000000E+00  0.00000000E+00  0.00000000E+00
  0.00000000E+00  0.00000000E+00  0.00000000E+00
  0.00000000E+00  0.00000000E+00  0.00000000E+00
  0.00000000E+00  0.00000000E+00  0.00000000E+00
  0.00000000E+00  0.00000000E+00  0.00000000E+00
  0.00000000E+00  0.00000000E+00  0.00000000E+00
  0.00000000E+00  0.00000000E+00  0.00000000E+00
  0.00000000E+00  0.00000000E+00  0.00000000E+00
  0.00000000E+00  0.00000000E+00  0.00000000E+00
  0.00000000E+00  0.00000000E+00  0.00000000E+00
  0.00000000E+00  0.00000000E+00  0.00000000E+00
  0.00000000E+00  0.00000000E+00  0.00000000E+00
  0.00000000E+00  0.00000000E+00  0.00000000E+00
  0.00000000E+00  0.00000000E+00  0.00000000E+00
  0.00000000E+00  0.00000000E+00  0.00000000E+00
  0.00000000E+00  0.00000000E+00  0.00000000E+00
  0.00000000E+00  0.00000000E+00  0.00000000E+00
  0.00000000E+00  0.00000000E+00  0.00000000E+00
  0.00000000E+00  0.00000000E+00  0.00000000E+00
  0.00000000E+00  0.00000000E+00  0.00000000E+00
  0.00000000E+00  0.00000000E+00  0.00000000E+00
  0.00000000E+00  0.00000000E+00  0.00000000E+00
  0.00000000E+00  0.00000000E+00  0.00000000E+00
  0.00000000E+00  0.00000000E+00  0.00000000E+00
  0.00000000E+00  0.00000000E+00  0.00000000E+00
  0.00000000E+00  0.00000000E+00  0.00000000E+00
  0.00000000E+00  0.00000000E+00  0.00000000E+00
  0.00000000E+00  0.00000000E+00  0.00000000E+00
  0.00000000E+00  0.00000000E+00  0.00000000E+00
  0.00000000E+00  0.00000000E+00  0.00000000E+00
  0.00000000E+00  0.00000000E+00  0.00000000E+00
  0.00000000E+00  0.00000000E+00  0.00000000E+00
  0.00000000E+00  0.00000000E+00  0.00000000E+00
  0.00000000E+00  0.00000000E+00  0.00000000E+00
  0.00000000E+00  0.00000000E+00  0.00000000E+00
  0.00000000E+00  0.00000000E+00  0.00000000E+00
  0.00000000E+00  0.00000000E+00  0.00000000E+00
  0.00000000E+00  0.00000000E+00  0.00000000E+00
  0.00000000E+00  0.00000000E+00  0.00000000E+00
  0.00000000E+00  0.00000000E+00  0.00000000E+00
  0.00000000E+00  0.00000000E+00  0.00000000E+00
  0.00000000E+00  0.00000000E+00  0.00000000E+00
  0.00000000E+00  0.00000000E+00  0.00000000E+00
  0.00000000E+00  0.00000000E+00  0.00000000E+00
  0.00000000E+00  0.00000000E+00  0.00000000E+00
  0.00000000E+00  0.00000000E+00  0.00000000E+00
  0.00000000E+00  0.00000000E+00  0.00000000E+00
  0.00000000E+00  0.00000000E+00  0.00000000E+00
  0.00000000E+00  0.00000000E+00  0.00000000E+00
  0.00000000E+00  0.00000000E+00  0.00000000E+00
  0.00000000E+00  0.00000000E+00  0.00000000E+00
  0.00000000E+00  0.00000000E+00  0.00000000E+00
  0.00000000E+00  0.00000000E+00  0.00000000E+00
  0.00000000E+00  0.00000000E+00  0.00000000E+00
  0.00000000E+00  0.00000000E+00  0.00000000E+00
  0.00000000E+00  0.00000000E+00  0.00000000E+00
  0.00000000E+00  0.00000000E+00  0.00000000E+00
  0.00000000E+00  0.00000000E+00  0.00000000E+00
  0.00000000E+00  0.00000000E+00  0.00000000E+00
  0.00000000E+00  0.00000000E+00  0.00000000E+00
  0.00000000E+00  0.00000000E+00  0.00000000E+00
  0.00000000E+00  0.00000000E+00  0.00000000E+00
  0.00000000E+00  0.00000000E+00  0.00000000E+00
  0.00000000E+00  0.00000000E+00  0.00000000E+00
  0.00000000E+00  0.00000000E+00  0.00000000E+00
  0.00000000E+00  0.00000000E+00  0.00000000E+00
  0.00000000E+00  0.00000000E+00  0.00000000E+00
  0.00000000E+00  0.00000000E+00  0.00000000E+00
  0.00000000E+00  0.00000000E+00  0.00000000E+00
  0.00000000E+00  0.00000000E+00  0.00000000E+00
  0.00000000E+00  0.00000000E+00  0.00000000E+00
  0.00000000E+00  0.00000000E+00  0.00000000E+00
  0.00000000E+00  0.00000000E+00  0.00000000E+00
  0.00000000E+00  0.00000000E+00  0.00000000E+00
  0.00000000E+00  0.00000000E+00  0.00000000E+00
  0.00000000E+00  0.00000000E+00  0.00000000E+00
  0.00000000E+00  0.00000000E+00  0.00000000E+00
  0.00000000E+00  0.00000000E+00  0.00000000E+00
  0.00000000E+00  0.00000000E+00  0.00000000E+00
  0.00000000E+00  0.00000000E+00  0.00000000E+00
  0.00000000E+00  0.00000000E+00  0.00000000E+00
  0.00000000E+00  0.00000000E+00  0.00000000E+00
  0.00000000E+00  0.00000000E+00  0.00000000E+00
  0.00000000E+00  0.00000000E+00  0.00000000E+00
  0.00000000E+00  0.00000000E+00  0.00000000E+00
  0.00000000E+00  0.00000000E+00  0.00000000E+00
  0.00000000E+00  0.00000000E+00  0.00000000E+00
  0.00000000E+00  0.00000000E+00  0.00000000E+00
  0.00000000E+00  0.00000000E+00  0.00000000E+00
  0.00000000E+00  0.00000000E+00  0.00000000E+00
  0.00000000E+00  0.00000000E+00  0.00000000E+00
  0.00000000E+00  0.00000000E+00  0.00000000E+00
  0.00000000E+00  0.00000000E+00  0.00000000E+00
  0.00000000E+00  0.00000000E+00  0.00000000E+00
  0.00000000E+00  0.00000000E+00  0.00000000E+00
  0.00000000E+00  0.00000000E+00  0.00000000E+00
  0.00000000E+00  0.00000000E+00  0.00000000E+00
  0.00000000E+00  0.00000000E+00  0.00000000E+00
  0.00000000E+00  0.00000000E+00  0.00000000E+00
  0.00000000E+00  0.00000000E+00  0.00000000E+00
