#generated using str2pos                
    1.000000000000000     
    12.9662862906795109    0.0138935085223028    0.0112724656480518
     0.0138890648976929   12.9410076997466774    0.0035758439086675
     0.0112709962254076    0.0035742423079959   12.9629508139871081
   Ta   W 
    70    58
Direct
  0.1303489006789002  0.1264401066089668  0.1242771064043431
  0.3761925207326098  0.1278992170650854  0.1238019494777654
  0.6249030639193180  0.1270464643484574  0.1245300513724323
  0.0007440376351180  0.2468452701095616  0.2505209306699859
  0.2539862775709362  0.5027898953137185  0.2528664558388711
  0.1286855014206973  0.3753032015735038  0.1240163839902156
  0.4974211904319635  0.5009332711731298  0.2512379456906541
  0.3763034505678436  0.3729962193628701  0.1237405296644512
  0.0018304206424845  0.5028420169705230  0.2514981687388731
  0.8723776258114648  0.3755285581961271  0.1243325017171893
  0.1276585229303360  0.6251376723555554  0.1221319622365643
  0.4982372619899093  0.7502580920978100  0.2524434673783804
  0.7508298252019744  0.7519827420343507  0.2487116911037521
  0.6256612770974790  0.6211936283657341  0.1254650832229137
 -0.0001785765856865  0.7508169187577115  0.2505645594994580
  0.2506824747155125  0.0005902451116230  0.2561243930441707
  0.1300591710539867  0.8738604433000648  0.1230804764918085
  0.4985348610325191 -0.0004535696448632  0.2545271336514522
  0.3734103835084528  0.8768158611733931  0.1226565432919822
  0.6244317518843048  0.8799021990927308  0.1254260998659854
  0.0007492778271663  0.0002846711600425  0.2497574257244513
  0.4980415381101901  0.2526037196769714  0.5002016687946731
  0.6268058645686336  0.1263036623148895  0.3745646182850980
  0.0025229012452469  0.2500579420305256  0.5023365691477378
  0.8713652924258813  0.1238421719351421  0.3775758868433449
  0.1295079056660401  0.3738622835177296  0.3750430632805653
  0.6261036202377153  0.3754186923992472  0.3748900081137441
  0.0003122390290481  0.4993980358523766  0.5021667732781121
  0.8704179913842123  0.3739986754502601  0.3739280074372581
  0.2511746918010001  0.7522829706354396  0.4957057868027693
  0.6263015055135122  0.6237813673419204  0.3778093431127587
 -0.0000370176708356  0.7491091455869865  0.4993539258690329
  0.8703412025787163  0.6241730648411341  0.3766554909660867
  0.2500836937543740  0.0002741916272836  0.4980712215122659
  0.8720480417468374  0.8774885542313933  0.3779035042543300
  0.2468049633690390  0.2505850269700232  0.7481121649138212
  0.5003267422711702  0.2532190162077372  0.7477723239455706
  0.3757799866001149  0.1260326727967139  0.6221879197799393
  0.6282337430402058  0.1231906714402562  0.6237780979528896
  0.0026829990173736  0.2506233837007132  0.7486946453615466
  0.8726340315874748  0.1225624533424179  0.6247785325220794
  0.2492817522536251  0.4943286524099495  0.7479821452862501
  0.5024707514438747  0.4977828016963297  0.7481959115075935
  0.7483485293630849  0.4981021250188008  0.7466388585449149
 -0.0008787636649616  0.4965472837248407  0.7468885661072487
  0.1288153309975202  0.6258138129773563  0.6255287327412343
  0.5017812800461922  0.7505899074258221  0.7491250477878204
  0.3752529606835376  0.6245847688510894  0.6230376411947216
 -0.0037986301148062  0.7483308925466219  0.7471902445661556
  0.2492790642211394  0.0032739081346949  0.7463654752153210
  0.1224105688321330  0.8753263259721401  0.6264426514059016
  0.4988478055381898 -0.0026335949260620  0.7488461057557393
  0.6272502262527931  0.8745153877944898  0.6227824316185030
  0.3764240954707513  0.1256677951636414  0.8793658103732476
  0.6261956541934968  0.1256835583557866  0.8770070395431360
  0.0007573505749731  0.2467812611780650 -0.0021136331011408
  0.8701836618938539  0.1237640545865541  0.8721105848523306
  0.3757998108828656  0.3749575960103856  0.8799894281252848
  0.8719971111104385  0.3737858397780423  0.8778860316884276
  0.1261488929490449  0.6246682645170762  0.8768702197302635
  0.5019302548634320  0.7494665980707507  0.0005335135953324
  0.3732518402359101  0.6242144793648799  0.8760666534875439
  0.7506382693103147  0.7516657481615928  0.0020020716402584
  0.6256789633172156  0.6222374702402858  0.8764334332442776
 -0.0045571400207219  0.7513484763127170  0.0025959516809716
  0.8731925268063403  0.6227768918528834  0.8756364690165708
  0.1258421392983282  0.8738459553419338  0.8735408645110021
  0.3719155603136812  0.8748081586334642  0.8775569342509674
 -0.0019383242030819  0.0016187535251758  0.0016475991491670
  0.8724436231524445  0.8769782285686205  0.8716294332257952
  0.2519929792657443  0.2499305607777699  0.2530997223388804
  0.4998722103475030  0.2516531823735725  0.2518506536837740
  0.7499786563496739  0.2498362909937358  0.2481486091889983
  0.8710496997112157  0.1265834015869478  0.1255717022444061
  0.7490454059832735  0.5002728584442214  0.2491864615257657
  0.6257960120771072  0.3736211261864020  0.1249439476560743
  0.2513227012527321  0.7494315901777372  0.2531580209035496
  0.3740917902063527  0.6250513405721689  0.1241360015002372
  0.8743983135708808  0.6214684032868207  0.1251780005402528
  0.7504062398001924 -0.0001718419069332  0.2494548530880407
  0.8733186951440660  0.8779948940100203  0.1258185559242501
  0.2510046701875840  0.2499219706506446  0.4998116733245556
  0.1260527999720747  0.1268107242317977  0.3754244966630102
  0.3765547531222716  0.1277719995331134  0.3746454195610199
  0.7493901894074066  0.2516852446924944  0.5015662503175509
  0.2516618183596045  0.4998104331701585  0.4987405497623440
  0.4996407368054206  0.4993198022890384  0.5004915430729462
  0.3756982968797510  0.3750271612506982  0.3749974067057290
  0.7496430996595376  0.4999766074059146  0.5043393663510712
  0.1272386397921239  0.6249469711115474  0.3743908671902185
  0.4993045113056443  0.7507680503226540  0.4992579439237602
  0.3771154105333255  0.6255482611646804  0.3775362844228032
  0.7492037066305315  0.7493759849823538  0.5018125599926441
  0.1242136849278194  0.8757274307266268  0.3751946198131091
  0.4978943709135648 -0.0008793163220671  0.4983069045320256
  0.3764271414234086  0.8744913569979741  0.3753204039986406
  0.7494220021587883 -0.0023888414093715  0.5000440295202129
  0.6255494727423799  0.8760237000243979  0.3787322245247643
  0.0019975678909358 -0.0000739060692634  0.4993321536931543
  0.1228445294203543  0.1233189819332599  0.6233740073701834
  0.7489342574204559  0.2526730873244805  0.7494012702557507
  0.1269235315105579  0.3745639161975283  0.6221339832303111
  0.3752638480683226  0.3765994578504674  0.6217535451978120
  0.6261561189520027  0.3747876158889197  0.6226290751902218
  0.8719246477606997  0.3723169035390036  0.6244114296872804
  0.2509249844447020  0.7504048296446344  0.7474855926047669
  0.7492056188507075  0.7480578509941452  0.7483435107801153
  0.6247271886920175  0.6259683558343477  0.6222783846637365
  0.8717939250207276  0.6251770391710862  0.6241676678244470
  0.3766572305567031  0.8734918581657176  0.6237762075816145
  0.7488936667415026 -0.0025359483330196  0.7497137568138560
  0.0002370972876206  0.0008904121840960  0.7489703327156143
  0.8722579743556125  0.8767744926701948  0.6246756822269047
  0.2484202554225806  0.2504845478169412 -0.0025932283398366
  0.1250464672606827  0.1236116734836537  0.8751192917217328
  0.5027216022226488  0.2525415559977739  0.0000220460811568
  0.7490802226089213  0.2504847823269279  0.0010212973345588
  0.2509579460581898  0.4996608843700717  0.0002550107907731
  0.1254787036673227  0.3754877524792941  0.8774688698391873
  0.5011935862826239  0.4995561805305171  0.0019497896956791
  0.7485610320447014  0.4987410434472542  0.0004916517620665
  0.6252899173392565  0.3732431738114867  0.8774670988001578
 -0.0002552961646134  0.4990955593772380 -0.0001295341534741
  0.2511229853232414  0.7489075151762336  0.0013158320238856
  0.2480278518882030  0.0017204810832127 -0.0015644566495314
  0.5017045589839865 -0.0005705081589096 -0.0006206082264396
  0.7513549257371562 -0.0007021722705095  0.0011071335345602
  0.6259787234773484  0.8770610084949134  0.8740615056849600
 
  0.00000000E+00  0.00000000E+00  0.00000000E+00
  0.00000000E+00  0.00000000E+00  0.00000000E+00
  0.00000000E+00  0.00000000E+00  0.00000000E+00
  0.00000000E+00  0.00000000E+00  0.00000000E+00
  0.00000000E+00  0.00000000E+00  0.00000000E+00
  0.00000000E+00  0.00000000E+00  0.00000000E+00
  0.00000000E+00  0.00000000E+00  0.00000000E+00
  0.00000000E+00  0.00000000E+00  0.00000000E+00
  0.00000000E+00  0.00000000E+00  0.00000000E+00
  0.00000000E+00  0.00000000E+00  0.00000000E+00
  0.00000000E+00  0.00000000E+00  0.00000000E+00
  0.00000000E+00  0.00000000E+00  0.00000000E+00
  0.00000000E+00  0.00000000E+00  0.00000000E+00
  0.00000000E+00  0.00000000E+00  0.00000000E+00
  0.00000000E+00  0.00000000E+00  0.00000000E+00
  0.00000000E+00  0.00000000E+00  0.00000000E+00
  0.00000000E+00  0.00000000E+00  0.00000000E+00
  0.00000000E+00  0.00000000E+00  0.00000000E+00
  0.00000000E+00  0.00000000E+00  0.00000000E+00
  0.00000000E+00  0.00000000E+00  0.00000000E+00
  0.00000000E+00  0.00000000E+00  0.00000000E+00
  0.00000000E+00  0.00000000E+00  0.00000000E+00
  0.00000000E+00  0.00000000E+00  0.00000000E+00
  0.00000000E+00  0.00000000E+00  0.00000000E+00
  0.00000000E+00  0.00000000E+00  0.00000000E+00
  0.00000000E+00  0.00000000E+00  0.00000000E+00
  0.00000000E+00  0.00000000E+00  0.00000000E+00
  0.00000000E+00  0.00000000E+00  0.00000000E+00
  0.00000000E+00  0.00000000E+00  0.00000000E+00
  0.00000000E+00  0.00000000E+00  0.00000000E+00
  0.00000000E+00  0.00000000E+00  0.00000000E+00
  0.00000000E+00  0.00000000E+00  0.00000000E+00
  0.00000000E+00  0.00000000E+00  0.00000000E+00
  0.00000000E+00  0.00000000E+00  0.00000000E+00
  0.00000000E+00  0.00000000E+00  0.00000000E+00
  0.00000000E+00  0.00000000E+00  0.00000000E+00
  0.00000000E+00  0.00000000E+00  0.00000000E+00
  0.00000000E+00  0.00000000E+00  0.00000000E+00
  0.00000000E+00  0.00000000E+00  0.00000000E+00
  0.00000000E+00  0.00000000E+00  0.00000000E+00
  0.00000000E+00  0.00000000E+00  0.00000000E+00
  0.00000000E+00  0.00000000E+00  0.00000000E+00
  0.00000000E+00  0.00000000E+00  0.00000000E+00
  0.00000000E+00  0.00000000E+00  0.00000000E+00
  0.00000000E+00  0.00000000E+00  0.00000000E+00
  0.00000000E+00  0.00000000E+00  0.00000000E+00
  0.00000000E+00  0.00000000E+00  0.00000000E+00
  0.00000000E+00  0.00000000E+00  0.00000000E+00
  0.00000000E+00  0.00000000E+00  0.00000000E+00
  0.00000000E+00  0.00000000E+00  0.00000000E+00
  0.00000000E+00  0.00000000E+00  0.00000000E+00
  0.00000000E+00  0.00000000E+00  0.00000000E+00
  0.00000000E+00  0.00000000E+00  0.00000000E+00
  0.00000000E+00  0.00000000E+00  0.00000000E+00
  0.00000000E+00  0.00000000E+00  0.00000000E+00
  0.00000000E+00  0.00000000E+00  0.00000000E+00
  0.00000000E+00  0.00000000E+00  0.00000000E+00
  0.00000000E+00  0.00000000E+00  0.00000000E+00
  0.00000000E+00  0.00000000E+00  0.00000000E+00
  0.00000000E+00  0.00000000E+00  0.00000000E+00
  0.00000000E+00  0.00000000E+00  0.00000000E+00
  0.00000000E+00  0.00000000E+00  0.00000000E+00
  0.00000000E+00  0.00000000E+00  0.00000000E+00
  0.00000000E+00  0.00000000E+00  0.00000000E+00
  0.00000000E+00  0.00000000E+00  0.00000000E+00
  0.00000000E+00  0.00000000E+00  0.00000000E+00
  0.00000000E+00  0.00000000E+00  0.00000000E+00
  0.00000000E+00  0.00000000E+00  0.00000000E+00
  0.00000000E+00  0.00000000E+00  0.00000000E+00
  0.00000000E+00  0.00000000E+00  0.00000000E+00
  0.00000000E+00  0.00000000E+00  0.00000000E+00
  0.00000000E+00  0.00000000E+00  0.00000000E+00
  0.00000000E+00  0.00000000E+00  0.00000000E+00
  0.00000000E+00  0.00000000E+00  0.00000000E+00
  0.00000000E+00  0.00000000E+00  0.00000000E+00
  0.00000000E+00  0.00000000E+00  0.00000000E+00
  0.00000000E+00  0.00000000E+00  0.00000000E+00
  0.00000000E+00  0.00000000E+00  0.00000000E+00
  0.00000000E+00  0.00000000E+00  0.00000000E+00
  0.00000000E+00  0.00000000E+00  0.00000000E+00
  0.00000000E+00  0.00000000E+00  0.00000000E+00
  0.00000000E+00  0.00000000E+00  0.00000000E+00
  0.00000000E+00  0.00000000E+00  0.00000000E+00
  0.00000000E+00  0.00000000E+00  0.00000000E+00
  0.00000000E+00  0.00000000E+00  0.00000000E+00
  0.00000000E+00  0.00000000E+00  0.00000000E+00
  0.00000000E+00  0.00000000E+00  0.00000000E+00
  0.00000000E+00  0.00000000E+00  0.00000000E+00
  0.00000000E+00  0.00000000E+00  0.00000000E+00
  0.00000000E+00  0.00000000E+00  0.00000000E+00
  0.00000000E+00  0.00000000E+00  0.00000000E+00
  0.00000000E+00  0.00000000E+00  0.00000000E+00
  0.00000000E+00  0.00000000E+00  0.00000000E+00
  0.00000000E+00  0.00000000E+00  0.00000000E+00
  0.00000000E+00  0.00000000E+00  0.00000000E+00
  0.00000000E+00  0.00000000E+00  0.00000000E+00
  0.00000000E+00  0.00000000E+00  0.00000000E+00
  0.00000000E+00  0.00000000E+00  0.00000000E+00
  0.00000000E+00  0.00000000E+00  0.00000000E+00
  0.00000000E+00  0.00000000E+00  0.00000000E+00
  0.00000000E+00  0.00000000E+00  0.00000000E+00
  0.00000000E+00  0.00000000E+00  0.00000000E+00
  0.00000000E+00  0.00000000E+00  0.00000000E+00
  0.00000000E+00  0.00000000E+00  0.00000000E+00
  0.00000000E+00  0.00000000E+00  0.00000000E+00
  0.00000000E+00  0.00000000E+00  0.00000000E+00
  0.00000000E+00  0.00000000E+00  0.00000000E+00
  0.00000000E+00  0.00000000E+00  0.00000000E+00
  0.00000000E+00  0.00000000E+00  0.00000000E+00
  0.00000000E+00  0.00000000E+00  0.00000000E+00
  0.00000000E+00  0.00000000E+00  0.00000000E+00
  0.00000000E+00  0.00000000E+00  0.00000000E+00
  0.00000000E+00  0.00000000E+00  0.00000000E+00
  0.00000000E+00  0.00000000E+00  0.00000000E+00
  0.00000000E+00  0.00000000E+00  0.00000000E+00
  0.00000000E+00  0.00000000E+00  0.00000000E+00
  0.00000000E+00  0.00000000E+00  0.00000000E+00
  0.00000000E+00  0.00000000E+00  0.00000000E+00
  0.00000000E+00  0.00000000E+00  0.00000000E+00
  0.00000000E+00  0.00000000E+00  0.00000000E+00
  0.00000000E+00  0.00000000E+00  0.00000000E+00
  0.00000000E+00  0.00000000E+00  0.00000000E+00
  0.00000000E+00  0.00000000E+00  0.00000000E+00
  0.00000000E+00  0.00000000E+00  0.00000000E+00
  0.00000000E+00  0.00000000E+00  0.00000000E+00
  0.00000000E+00  0.00000000E+00  0.00000000E+00
  0.00000000E+00  0.00000000E+00  0.00000000E+00
  0.00000000E+00  0.00000000E+00  0.00000000E+00
