#generated using str2pos                
    1.000000000000000     
    12.9733474465185612    0.0047137418741201   -0.0030004624491503
     0.0047119806026441   12.9883340439346018    0.0164602131871714
    -0.0029998505488012    0.0164592047411071   13.0067172984170583
   Ta   W 
    77    51
Direct
  0.1254032091064323  0.1245832612826406  0.1303901290273606
  0.7526399229843708  0.2475427271147136  0.2544703392104983
  0.6267888116398317  0.1258448255162296  0.1271334070525370
  0.2453885402981593  0.4996867748781821  0.2508399370132047
  0.1242244259841017  0.3702326716579998  0.1280449122182259
  0.3758948633785905  0.3734483838688442  0.1300420042515671
  0.7521929811668814  0.5033542470927739  0.2528208106599545
  0.6241227165496834  0.3721680786732232  0.1280872375258844
 -0.0020090278771717  0.5014143369335421  0.2517197447088687
  0.8748520512672239  0.3717940198467057  0.1253613595659372
  0.2491274018690333  0.7540131023981860  0.2495365473724442
  0.5014822990030778  0.7529134309429808  0.2523238764229739
  0.3768425523954920  0.6229709733519910  0.1284232571011401
  0.7505900892359353  0.7488156619263612  0.2535228184241681
  0.4980959271357457 -0.0005156713224363  0.2527468818579471
  0.6290911506749958  0.8788308527416421  0.1275365894071135
  0.8762269403255326  0.8776555523357297  0.1302907286856416
  0.2465837013047550  0.2464357018500276  0.4978344339051974
  0.7514857282488507  0.2461088942305145  0.4978278486384121
 -0.0007591183918501  0.2467154366190794  0.4980809348505574
  0.2480604858135422  0.4968070839340573  0.4964776093443197
  0.3777632355407431  0.3723917417871851  0.3741007541728184
  0.7504716743428411  0.5035468701977367  0.4978379578426836
  0.6198857217460395  0.3740656753826533  0.3759865310163911
  0.1234720933667851  0.6274894254623876  0.3777985500023170
  0.5036131094638051  0.7505634714265799  0.4967301253289781
  0.3754234115645252  0.6224704063687231  0.3773629486453440
  0.7512018184371458  0.7497007016709126  0.4984892822187158
 -0.0031002959412961  0.7537345030615732  0.4997845213229696
  0.2475250085224038 -0.0003689395892478  0.4968749777383942
  0.5011099511707683 -0.0010122870431468  0.4959749128020378
 -0.0001289670293061 -0.0001060081142695  0.4994185529802175
  0.2485862305000980  0.2456222498492667  0.7498898527710417
  0.4982941363362867  0.2457935394037855  0.7503295077181300
  0.3749815860065418  0.1228526711389422  0.6227847492196823
  0.0020655730211459  0.2451938112833236  0.7473784528319712
  0.1240951754263236  0.3780903353898480  0.6237913880091256
  0.3769022327173958  0.3763290966201097  0.6227392838308653
  0.7500732563248361  0.5041593456999144  0.7451800831504803
  0.6225743165833678  0.3745212780490266  0.6234151064342097
 -0.0040037775194986  0.5032405768985762  0.7473028446435328
  0.8738899242304943  0.3744750930210468  0.6243983826759659
  0.1275145204671349  0.6252636092514414  0.6234158390744844
  0.3742621682962444  0.6249093121855431  0.6248954468429381
 -0.0031369471284441  0.7542073865975450  0.7460160628465012
  0.5026653292111025  0.0014276231828055  0.7502784755661339
  0.3739902877172248  0.8715340866724097  0.6263302895669093
  0.7515202853100855 -0.0018100359228042  0.7482329011170789
  0.6259431471358204  0.8738374406281275  0.6251216898921028
 -0.0008125417419356 -0.0002606830792586  0.7462971053069598
  0.2517538219606890  0.2452460989984503 -0.0011716037360775
  0.4960236750040678  0.2463768751911940 -0.0001968079947311
  0.6295826930149772  0.1278795455144625  0.8763099402083641
  0.0016555977851674  0.2466000766495070  0.0004928015933249
  0.8720435028060167  0.1280670940207960  0.8753519118478276
  0.2485297390980353  0.5018303106514128  0.0037721237064221
  0.1256397920835272  0.3776988105130393  0.8733028829038155
  0.5017496326531247  0.5018791371278570  0.0016442143945964
  0.3750691747372021  0.3788642325934403  0.8719139066505541
  0.7496605934975735  0.5046098440040975  0.0044175799086765
  0.6259435695653954  0.3744846153250926  0.8734502499139093
 -0.0008947005193296  0.5042770513265670  0.0039142802889978
  0.8716191734011725  0.3725968848596081  0.8751916418641862
  0.2492664167160809  0.7519467891626314  0.0058660653404640
  0.1278540386837375  0.6274586172568613  0.8707786218978967
  0.5020200776945533  0.7524443558541222  0.0026114400951935
  0.3756926790275182  0.6264332601656063  0.8695055998927022
  0.7508667523059296  0.7512915993402010  0.0008867823691802
  0.6236367085620007  0.6268349122444002  0.8710368205876731
  0.0002013260951058  0.7518501339135900  0.0022323287065347
  0.8732001226952780  0.6275872313763469  0.8733443449405796
  0.2513993042432618  0.0002251944077051  0.0019105290465500
  0.1290836047473204  0.8742436936186579  0.8717257334034192
  0.4976931214762674 -0.0000955346014250  0.0006887926257516
  0.3733414798498885  0.8721944412262991  0.8700178342355672
  0.7523171970721093 -0.0016142320893252 -0.0005248537700550
  0.0016664265416664 -0.0003479792333202  0.0001269643088356
  0.2494260098150081  0.2461110675207721  0.2525739213943189
  0.4993087561741584  0.2452131513482946  0.2516560087815415
  0.3735518541210075  0.1253346794208042  0.1292287008524763
 -0.0010759432776033  0.2481824197015034  0.2540006976145325
  0.8763446744221468  0.1242842372489136  0.1276697390267424
  0.5025784980163002  0.5019285255566182  0.2508949962260943
  0.1241954372920163  0.6269728104842771  0.1278911771904289
  0.6239828551499952  0.6250206450992711  0.1268883182927889
  0.0001875264809912  0.7516937363865180  0.2516452339926519
  0.8760933427290404  0.6281240166795290  0.1270973024010295
  0.2504776599259170 -0.0016630644864509  0.2516070535834924
  0.1233694378716606  0.8779708766589540  0.1287126287044098
  0.3747473033278442  0.8763690834424986  0.1264908805264310
  0.7519969704023833  0.0008966301814976  0.2543475018449079
  0.0006584832134349  0.0002128364672136  0.2531703525659432
  0.1239750119420541  0.1236252974047733  0.3710858431112712
  0.5010169546522170  0.2452525125912544  0.4994318003540701
  0.3746204178373823  0.1259798609364351  0.3736511806208319
  0.6255094608598472  0.1247800097774232  0.3751174032846269
  0.8753440485829216  0.1220288107378094  0.3741567735951485
  0.1237743734159337  0.3730839583673867  0.3744165331385228
  0.5020881180440284  0.5017616812279281  0.4995059343013873
 -0.0030124607064353  0.5002546721934766  0.4968609274879266
  0.8762852032327791  0.3740997697769035  0.3754822333371129
  0.2486196312451180  0.7533079900275418  0.4970564568545237
  0.6235846716291252  0.6230414350276419  0.3759241832952527
  0.8772882953829622  0.6267534961550064  0.3756590112607378
  0.1240869813246926  0.8758699120482625  0.3739356993917301
  0.3726296802826448  0.8753220460349106  0.3760407630901749
  0.7513608762101597 -0.0000351066141662  0.4995340187750843
  0.6281202474760255  0.8774482992456760  0.3758023876007552
  0.8759150688771616  0.8778719080321447  0.3733165126895271
  0.1257903014308678  0.1226556035418454  0.6234850950541984
  0.7495648377673231  0.2476792517121225  0.7457807218661473
  0.6255225793857289  0.1249007468917133  0.6230524344887662
  0.8729089284807140  0.1244922788937593  0.6237818159585401
  0.2493290850976225  0.4993496559785590  0.7483332461804928
  0.5021069815392039  0.5005347959114784  0.7478042830270536
  0.2487016339292036  0.7515785709756437  0.7475712876467093
  0.5029942365981642  0.7508640321185179  0.7484013155482664
  0.7513729286132920  0.7524458574433965  0.7476679105982861
  0.6221079071630826  0.6252728276245526  0.6253770316605828
  0.8747278977819632  0.6260876040736875  0.6234299863767961
  0.2477027876409396  0.0014530465684622  0.7482775256420862
  0.1277612906584072  0.8733141851369380  0.6240486558595998
  0.8724522511347708  0.8759508660932659  0.6225115842154109
  0.1249420969847150  0.1220889641488172  0.8749995608660434
  0.3748365907707602  0.1221547444165708  0.8735911187290329
  0.7508061097553396  0.2491111314628214  0.0034488556469068
  0.6245689530223811  0.8737804739973211  0.8728848569962494
  0.8751703193023683  0.8756414555583063  0.8744324304092729
 
  0.00000000E+00  0.00000000E+00  0.00000000E+00
  0.00000000E+00  0.00000000E+00  0.00000000E+00
  0.00000000E+00  0.00000000E+00  0.00000000E+00
  0.00000000E+00  0.00000000E+00  0.00000000E+00
  0.00000000E+00  0.00000000E+00  0.00000000E+00
  0.00000000E+00  0.00000000E+00  0.00000000E+00
  0.00000000E+00  0.00000000E+00  0.00000000E+00
  0.00000000E+00  0.00000000E+00  0.00000000E+00
  0.00000000E+00  0.00000000E+00  0.00000000E+00
  0.00000000E+00  0.00000000E+00  0.00000000E+00
  0.00000000E+00  0.00000000E+00  0.00000000E+00
  0.00000000E+00  0.00000000E+00  0.00000000E+00
  0.00000000E+00  0.00000000E+00  0.00000000E+00
  0.00000000E+00  0.00000000E+00  0.00000000E+00
  0.00000000E+00  0.00000000E+00  0.00000000E+00
  0.00000000E+00  0.00000000E+00  0.00000000E+00
  0.00000000E+00  0.00000000E+00  0.00000000E+00
  0.00000000E+00  0.00000000E+00  0.00000000E+00
  0.00000000E+00  0.00000000E+00  0.00000000E+00
  0.00000000E+00  0.00000000E+00  0.00000000E+00
  0.00000000E+00  0.00000000E+00  0.00000000E+00
  0.00000000E+00  0.00000000E+00  0.00000000E+00
  0.00000000E+00  0.00000000E+00  0.00000000E+00
  0.00000000E+00  0.00000000E+00  0.00000000E+00
  0.00000000E+00  0.00000000E+00  0.00000000E+00
  0.00000000E+00  0.00000000E+00  0.00000000E+00
  0.00000000E+00  0.00000000E+00  0.00000000E+00
  0.00000000E+00  0.00000000E+00  0.00000000E+00
  0.00000000E+00  0.00000000E+00  0.00000000E+00
  0.00000000E+00  0.00000000E+00  0.00000000E+00
  0.00000000E+00  0.00000000E+00  0.00000000E+00
  0.00000000E+00  0.00000000E+00  0.00000000E+00
  0.00000000E+00  0.00000000E+00  0.00000000E+00
  0.00000000E+00  0.00000000E+00  0.00000000E+00
  0.00000000E+00  0.00000000E+00  0.00000000E+00
  0.00000000E+00  0.00000000E+00  0.00000000E+00
  0.00000000E+00  0.00000000E+00  0.00000000E+00
  0.00000000E+00  0.00000000E+00  0.00000000E+00
  0.00000000E+00  0.00000000E+00  0.00000000E+00
  0.00000000E+00  0.00000000E+00  0.00000000E+00
  0.00000000E+00  0.00000000E+00  0.00000000E+00
  0.00000000E+00  0.00000000E+00  0.00000000E+00
  0.00000000E+00  0.00000000E+00  0.00000000E+00
  0.00000000E+00  0.00000000E+00  0.00000000E+00
  0.00000000E+00  0.00000000E+00  0.00000000E+00
  0.00000000E+00  0.00000000E+00  0.00000000E+00
  0.00000000E+00  0.00000000E+00  0.00000000E+00
  0.00000000E+00  0.00000000E+00  0.00000000E+00
  0.00000000E+00  0.00000000E+00  0.00000000E+00
  0.00000000E+00  0.00000000E+00  0.00000000E+00
  0.00000000E+00  0.00000000E+00  0.00000000E+00
  0.00000000E+00  0.00000000E+00  0.00000000E+00
  0.00000000E+00  0.00000000E+00  0.00000000E+00
  0.00000000E+00  0.00000000E+00  0.00000000E+00
  0.00000000E+00  0.00000000E+00  0.00000000E+00
  0.00000000E+00  0.00000000E+00  0.00000000E+00
  0.00000000E+00  0.00000000E+00  0.00000000E+00
  0.00000000E+00  0.00000000E+00  0.00000000E+00
  0.00000000E+00  0.00000000E+00  0.00000000E+00
  0.00000000E+00  0.00000000E+00  0.00000000E+00
  0.00000000E+00  0.00000000E+00  0.00000000E+00
  0.00000000E+00  0.00000000E+00  0.00000000E+00
  0.00000000E+00  0.00000000E+00  0.00000000E+00
  0.00000000E+00  0.00000000E+00  0.00000000E+00
  0.00000000E+00  0.00000000E+00  0.00000000E+00
  0.00000000E+00  0.00000000E+00  0.00000000E+00
  0.00000000E+00  0.00000000E+00  0.00000000E+00
  0.00000000E+00  0.00000000E+00  0.00000000E+00
  0.00000000E+00  0.00000000E+00  0.00000000E+00
  0.00000000E+00  0.00000000E+00  0.00000000E+00
  0.00000000E+00  0.00000000E+00  0.00000000E+00
  0.00000000E+00  0.00000000E+00  0.00000000E+00
  0.00000000E+00  0.00000000E+00  0.00000000E+00
  0.00000000E+00  0.00000000E+00  0.00000000E+00
  0.00000000E+00  0.00000000E+00  0.00000000E+00
  0.00000000E+00  0.00000000E+00  0.00000000E+00
  0.00000000E+00  0.00000000E+00  0.00000000E+00
  0.00000000E+00  0.00000000E+00  0.00000000E+00
  0.00000000E+00  0.00000000E+00  0.00000000E+00
  0.00000000E+00  0.00000000E+00  0.00000000E+00
  0.00000000E+00  0.00000000E+00  0.00000000E+00
  0.00000000E+00  0.00000000E+00  0.00000000E+00
  0.00000000E+00  0.00000000E+00  0.00000000E+00
  0.00000000E+00  0.00000000E+00  0.00000000E+00
  0.00000000E+00  0.00000000E+00  0.00000000E+00
  0.00000000E+00  0.00000000E+00  0.00000000E+00
  0.00000000E+00  0.00000000E+00  0.00000000E+00
  0.00000000E+00  0.00000000E+00  0.00000000E+00
  0.00000000E+00  0.00000000E+00  0.00000000E+00
  0.00000000E+00  0.00000000E+00  0.00000000E+00
  0.00000000E+00  0.00000000E+00  0.00000000E+00
  0.00000000E+00  0.00000000E+00  0.00000000E+00
  0.00000000E+00  0.00000000E+00  0.00000000E+00
  0.00000000E+00  0.00000000E+00  0.00000000E+00
  0.00000000E+00  0.00000000E+00  0.00000000E+00
  0.00000000E+00  0.00000000E+00  0.00000000E+00
  0.00000000E+00  0.00000000E+00  0.00000000E+00
  0.00000000E+00  0.00000000E+00  0.00000000E+00
  0.00000000E+00  0.00000000E+00  0.00000000E+00
  0.00000000E+00  0.00000000E+00  0.00000000E+00
  0.00000000E+00  0.00000000E+00  0.00000000E+00
  0.00000000E+00  0.00000000E+00  0.00000000E+00
  0.00000000E+00  0.00000000E+00  0.00000000E+00
  0.00000000E+00  0.00000000E+00  0.00000000E+00
  0.00000000E+00  0.00000000E+00  0.00000000E+00
  0.00000000E+00  0.00000000E+00  0.00000000E+00
  0.00000000E+00  0.00000000E+00  0.00000000E+00
  0.00000000E+00  0.00000000E+00  0.00000000E+00
  0.00000000E+00  0.00000000E+00  0.00000000E+00
  0.00000000E+00  0.00000000E+00  0.00000000E+00
  0.00000000E+00  0.00000000E+00  0.00000000E+00
  0.00000000E+00  0.00000000E+00  0.00000000E+00
  0.00000000E+00  0.00000000E+00  0.00000000E+00
  0.00000000E+00  0.00000000E+00  0.00000000E+00
  0.00000000E+00  0.00000000E+00  0.00000000E+00
  0.00000000E+00  0.00000000E+00  0.00000000E+00
  0.00000000E+00  0.00000000E+00  0.00000000E+00
  0.00000000E+00  0.00000000E+00  0.00000000E+00
  0.00000000E+00  0.00000000E+00  0.00000000E+00
  0.00000000E+00  0.00000000E+00  0.00000000E+00
  0.00000000E+00  0.00000000E+00  0.00000000E+00
  0.00000000E+00  0.00000000E+00  0.00000000E+00
  0.00000000E+00  0.00000000E+00  0.00000000E+00
  0.00000000E+00  0.00000000E+00  0.00000000E+00
  0.00000000E+00  0.00000000E+00  0.00000000E+00
  0.00000000E+00  0.00000000E+00  0.00000000E+00
  0.00000000E+00  0.00000000E+00  0.00000000E+00
  0.00000000E+00  0.00000000E+00  0.00000000E+00
