#generated using str2pos                
    1.000000000000000     
    13.0802216289874131    0.0016077614602445    0.0012598420963819
     0.0016060801091586   13.0681383558452335   -0.0020038880152992
     0.0012602004304299   -0.0020019342490196   13.0904698237528159
   Ta   W 
    96    32
Direct
  0.2489772501379690  0.2520720373515821  0.2483559785997152
  0.1229993471567370  0.1215546438857159  0.1283116420181498
  0.4988922320686636  0.2501528227130942  0.2498431914493124
  0.3733197867575146  0.1222225737736584  0.1262456032379151
  0.7533901535723622  0.2499255392044312  0.2529689220234945
  0.6288522609654399  0.1230225733603652  0.1243556152393360
 -0.0016828115400357  0.2501959819009962  0.2525205824562743
  0.8753500009961845  0.1219401621891497  0.1252151544454185
  0.2519897055956847  0.5003391449842055  0.2482522073657327
  0.1235169435416967  0.3790831499632919  0.1245090407007336
  0.4968450927294354  0.5013603989085587  0.2493350726176022
  0.3750173171524177  0.3777648609882318  0.1203731000552844
  0.7518212083448259  0.4999039475515929  0.2523395964426824
  0.6248598217803607  0.3767624067851082  0.1216385464310221
  0.8764762931305859  0.3766591388929103  0.1264858571907385
  0.1258865719806468  0.6258625227429181  0.1248498232452178
  0.4984791904149183  0.7481944232597355  0.2480583217381050
  0.7530072921454193  0.7502784979589679  0.2530882739772882
  0.6252463859685701  0.6236816519994818  0.1238218088321412
 -0.0029211372297184  0.7501159708787213  0.2533430522205933
  0.8768077237889138  0.6240143374110781  0.1270629172847142
  0.1261500045844290  0.8740085831130406  0.1273249090854794
  0.5006512961810500 -0.0001841212022057  0.2479900736667625
  0.3709234155775974  0.8732687260628396  0.1257749420014317
  0.7523014756451265 -0.0001459036739351  0.2538950066063538
  0.6280285155938816  0.8758429663569072  0.1248850258607807
  0.8748681704788501  0.8775334621784276  0.1248332333600589
  0.1265169679759627  0.1242909899802734  0.3768868689868191
  0.5000304661405695  0.2517987644858083  0.4991053507776320
  0.3715206967281615  0.1222287890391302  0.3783179630781109
  0.7519012148648547  0.2502452964903304  0.4986495492923760
  0.6225837706320444  0.1232671683685597  0.3770310638671681
  0.1240790517784284  0.3764722062403774  0.3792954980661589
  0.5000348173453825  0.5000730245452475  0.4995738291273389
  0.3704677822143414  0.3748503248107215  0.3788773084122703
  0.7520266858995288  0.4987037651263648  0.4980640495338455
  0.6245049966480113  0.3747816977195177  0.3749736890963242
  0.2468768471088180  0.7517955913082318  0.5020920719906691
  0.1251592776958827  0.6227440698685237  0.3747588885021623
  0.4977091500728054  0.7484696022970593  0.5007789356102842
  0.3703708759791408  0.6259860136529577  0.3756356017556719
  0.7532544275648452  0.7498850931036269  0.4981830844891945
  0.6239186703910337  0.6258094306080190  0.3746593166983562
  0.0001416703432953  0.7526323492910412  0.4991511684236438
  0.1276382773512360  0.8777349147047456  0.3714704667221486
  0.3714286077631745  0.8776258182491965  0.3746478147028506
  0.7550349433766885  0.0015597753463355  0.4977162132834925
  0.6215690132557750  0.8762474413748071  0.3766394287851151
 -0.0012299147443522 -0.0014703966330495  0.4999704931888356
  0.1259388673181226  0.1291785457115049  0.6232023382991242
  0.3734726784018152  0.1263860384195359  0.6240611596298618
  0.7517011095998963  0.2485622582907544  0.7534311703026584
  0.6227970451484035  0.1254964934852775  0.6246737708950613
  0.8787866969623250  0.1284744260822977  0.6254208910060186
  0.2481165229613853  0.4997475111906277  0.7496985898244135
  0.1248599898841300  0.3727173532488046  0.6227985146217947
  0.3727885475132244  0.3734169142037986  0.6271243685453903
  0.7530684870154544  0.5004217802571657  0.7536086870153578
  0.6228353919642833  0.3745517772841960  0.6294808494597687
 -0.0016280136603065  0.5011446630287544  0.7529815935018445
  0.8799471436324543  0.3733699745173821  0.6236433434823873
  0.1251446212389113  0.6228032179833649  0.6238008460360971
  0.5038228324938553  0.7507839797249046  0.7530414453613119
  0.3731767847741191  0.6233576550492557  0.6280764806345454
  0.7501970999190498  0.7503430531191840  0.7543083083597669
  0.6246321370355202  0.6227402762727750  0.6267264814028848
 -0.0019066428036382  0.7507561563529489  0.7505606331210037
  0.8768946900639816  0.6231077615312347  0.6229870322776146
  0.2479183308599814 -0.0016832252635364  0.7490147880964686
  0.5029375893036022 -0.0014930007636649  0.7542544716082780
  0.3749813162388818  0.8767036730516595  0.6246582961399800
  0.7506415135572660  0.0009968317555298  0.7540798415828742
  0.6246992134567936  0.8774810820089201  0.6226733815817211
 -0.0005900744313681 -0.0025341543593380  0.7500377464140692
  0.8733176611465360  0.8752569597733593  0.6255840335121399
  0.2493965395071316  0.2487689507667182  0.0018199783641248
  0.1254667663420167  0.1283304908993920  0.8703163819420888
  0.5018840547288937  0.2469483433173274 -0.0007943142931799
  0.3740203931017499  0.1283737142362809  0.8705439210371992
  0.7520724341702265  0.2490898902262488 -0.0043682615903559
 -0.0025416413918692  0.2499074298748742 -0.0021033500795628
  0.1277995133623394  0.3738994976523814  0.8727626527856487
  0.3766249710791078  0.3765500389461795  0.8729883680830849
  0.7523165843488846  0.5015024681632138 -0.0042665977072132
  0.6198789734923714  0.3761575943828107  0.8734030102002054
 -0.0031067919094230  0.5004235011555503 -0.0044410841087297
  0.1302392442219204  0.6263728159924207  0.8766685902559618
  0.5027011298625533  0.7495492068855379 -0.0010344706417172
  0.3737984991574889  0.6234362987781841  0.8760407124271513
  0.7504671991763373  0.7495235545035788 -0.0045478082709618
 -0.0034762365907711  0.7502429876864718 -0.0026677509642952
  0.2495493439296355  0.0014208306653304 -0.0024199853284492
  0.1282186585501312  0.8710286979871860  0.8757505064288583
  0.5021941379871293 -0.0008011684068667 -0.0032673633845018
  0.3716777230731333  0.8702926781040694  0.8754128729695446
 -0.0016605984652975 -0.0002425601129738 -0.0042678449231576
 -0.0008913077608057  0.5004754746362305  0.2516747768694031
  0.2495328652285638  0.7481360782068764  0.2499083860315032
  0.3726407570329174  0.6257942409306171  0.1216578413224118
  0.2492117680552469  0.0004405559532849  0.2495621578658742
 -0.0023297463716403  0.0000172577563095  0.2526587348006867
  0.2494563968346961  0.2498964799736688  0.4996879486593062
 -0.0014391443348511  0.2494031484409521  0.4977047256980685
  0.8789467102977568  0.1257912701021462  0.3756338763410667
  0.2490485385103550  0.5008063699254104  0.5008709113976153
 -0.0015540584332446  0.5002362276186056  0.4989771657867582
  0.8795789489022353  0.3758794711170741  0.3765973014558791
  0.8787791991441767  0.6226510941586915  0.3753305054648117
  0.2465565656310270 -0.0016016894531933  0.5027739533420966
  0.4995806854450232  0.0003339348169506  0.5012739730889281
  0.8773163483842827  0.8761643820264496  0.3742152859102867
  0.2497188792874637  0.2503872493253718  0.7496449174215373
  0.5014041287608304  0.2482437974816915  0.7506711337501741
 -0.0018502009854259  0.2504831648087728  0.7511021451756921
  0.5007573328129666  0.5017941944872226  0.7508385881951489
  0.2485251584473611  0.7505752665542222  0.7478015699387278
  0.1263294308998947  0.8753795821552427  0.6245640885607839
  0.6250916020483877  0.1255297337352243  0.8747734544001916
  0.8761655153867163  0.1247487346952535  0.8744714557866821
  0.2504972193931964  0.5004693493668222  0.0008110204060660
  0.5007897877004375  0.5025177898690060 -0.0002698209039892
  0.8762923489791004  0.3734120478486309  0.8732082258611275
  0.2511673376306094  0.7489515797047169  0.0015272834546356
  0.6217490068244460  0.6222199159976836  0.8751437160080776
  0.8758199288398364  0.6254951572194014  0.8745288924282513
  0.7505881498902798 -0.0005665829189960 -0.0034940996911775
  0.6261605618555468  0.8755975158124724  0.8764554215105996
  0.8746950444290883  0.8763117144698800  0.8760810852057882
 
  0.00000000E+00  0.00000000E+00  0.00000000E+00
  0.00000000E+00  0.00000000E+00  0.00000000E+00
  0.00000000E+00  0.00000000E+00  0.00000000E+00
  0.00000000E+00  0.00000000E+00  0.00000000E+00
  0.00000000E+00  0.00000000E+00  0.00000000E+00
  0.00000000E+00  0.00000000E+00  0.00000000E+00
  0.00000000E+00  0.00000000E+00  0.00000000E+00
  0.00000000E+00  0.00000000E+00  0.00000000E+00
  0.00000000E+00  0.00000000E+00  0.00000000E+00
  0.00000000E+00  0.00000000E+00  0.00000000E+00
  0.00000000E+00  0.00000000E+00  0.00000000E+00
  0.00000000E+00  0.00000000E+00  0.00000000E+00
  0.00000000E+00  0.00000000E+00  0.00000000E+00
  0.00000000E+00  0.00000000E+00  0.00000000E+00
  0.00000000E+00  0.00000000E+00  0.00000000E+00
  0.00000000E+00  0.00000000E+00  0.00000000E+00
  0.00000000E+00  0.00000000E+00  0.00000000E+00
  0.00000000E+00  0.00000000E+00  0.00000000E+00
  0.00000000E+00  0.00000000E+00  0.00000000E+00
  0.00000000E+00  0.00000000E+00  0.00000000E+00
  0.00000000E+00  0.00000000E+00  0.00000000E+00
  0.00000000E+00  0.00000000E+00  0.00000000E+00
  0.00000000E+00  0.00000000E+00  0.00000000E+00
  0.00000000E+00  0.00000000E+00  0.00000000E+00
  0.00000000E+00  0.00000000E+00  0.00000000E+00
  0.00000000E+00  0.00000000E+00  0.00000000E+00
  0.00000000E+00  0.00000000E+00  0.00000000E+00
  0.00000000E+00  0.00000000E+00  0.00000000E+00
  0.00000000E+00  0.00000000E+00  0.00000000E+00
  0.00000000E+00  0.00000000E+00  0.00000000E+00
  0.00000000E+00  0.00000000E+00  0.00000000E+00
  0.00000000E+00  0.00000000E+00  0.00000000E+00
  0.00000000E+00  0.00000000E+00  0.00000000E+00
  0.00000000E+00  0.00000000E+00  0.00000000E+00
  0.00000000E+00  0.00000000E+00  0.00000000E+00
  0.00000000E+00  0.00000000E+00  0.00000000E+00
  0.00000000E+00  0.00000000E+00  0.00000000E+00
  0.00000000E+00  0.00000000E+00  0.00000000E+00
  0.00000000E+00  0.00000000E+00  0.00000000E+00
  0.00000000E+00  0.00000000E+00  0.00000000E+00
  0.00000000E+00  0.00000000E+00  0.00000000E+00
  0.00000000E+00  0.00000000E+00  0.00000000E+00
  0.00000000E+00  0.00000000E+00  0.00000000E+00
  0.00000000E+00  0.00000000E+00  0.00000000E+00
  0.00000000E+00  0.00000000E+00  0.00000000E+00
  0.00000000E+00  0.00000000E+00  0.00000000E+00
  0.00000000E+00  0.00000000E+00  0.00000000E+00
  0.00000000E+00  0.00000000E+00  0.00000000E+00
  0.00000000E+00  0.00000000E+00  0.00000000E+00
  0.00000000E+00  0.00000000E+00  0.00000000E+00
  0.00000000E+00  0.00000000E+00  0.00000000E+00
  0.00000000E+00  0.00000000E+00  0.00000000E+00
  0.00000000E+00  0.00000000E+00  0.00000000E+00
  0.00000000E+00  0.00000000E+00  0.00000000E+00
  0.00000000E+00  0.00000000E+00  0.00000000E+00
  0.00000000E+00  0.00000000E+00  0.00000000E+00
  0.00000000E+00  0.00000000E+00  0.00000000E+00
  0.00000000E+00  0.00000000E+00  0.00000000E+00
  0.00000000E+00  0.00000000E+00  0.00000000E+00
  0.00000000E+00  0.00000000E+00  0.00000000E+00
  0.00000000E+00  0.00000000E+00  0.00000000E+00
  0.00000000E+00  0.00000000E+00  0.00000000E+00
  0.00000000E+00  0.00000000E+00  0.00000000E+00
  0.00000000E+00  0.00000000E+00  0.00000000E+00
  0.00000000E+00  0.00000000E+00  0.00000000E+00
  0.00000000E+00  0.00000000E+00  0.00000000E+00
  0.00000000E+00  0.00000000E+00  0.00000000E+00
  0.00000000E+00  0.00000000E+00  0.00000000E+00
  0.00000000E+00  0.00000000E+00  0.00000000E+00
  0.00000000E+00  0.00000000E+00  0.00000000E+00
  0.00000000E+00  0.00000000E+00  0.00000000E+00
  0.00000000E+00  0.00000000E+00  0.00000000E+00
  0.00000000E+00  0.00000000E+00  0.00000000E+00
  0.00000000E+00  0.00000000E+00  0.00000000E+00
  0.00000000E+00  0.00000000E+00  0.00000000E+00
  0.00000000E+00  0.00000000E+00  0.00000000E+00
  0.00000000E+00  0.00000000E+00  0.00000000E+00
  0.00000000E+00  0.00000000E+00  0.00000000E+00
  0.00000000E+00  0.00000000E+00  0.00000000E+00
  0.00000000E+00  0.00000000E+00  0.00000000E+00
  0.00000000E+00  0.00000000E+00  0.00000000E+00
  0.00000000E+00  0.00000000E+00  0.00000000E+00
  0.00000000E+00  0.00000000E+00  0.00000000E+00
  0.00000000E+00  0.00000000E+00  0.00000000E+00
  0.00000000E+00  0.00000000E+00  0.00000000E+00
  0.00000000E+00  0.00000000E+00  0.00000000E+00
  0.00000000E+00  0.00000000E+00  0.00000000E+00
  0.00000000E+00  0.00000000E+00  0.00000000E+00
  0.00000000E+00  0.00000000E+00  0.00000000E+00
  0.00000000E+00  0.00000000E+00  0.00000000E+00
  0.00000000E+00  0.00000000E+00  0.00000000E+00
  0.00000000E+00  0.00000000E+00  0.00000000E+00
  0.00000000E+00  0.00000000E+00  0.00000000E+00
  0.00000000E+00  0.00000000E+00  0.00000000E+00
  0.00000000E+00  0.00000000E+00  0.00000000E+00
  0.00000000E+00  0.00000000E+00  0.00000000E+00
  0.00000000E+00  0.00000000E+00  0.00000000E+00
  0.00000000E+00  0.00000000E+00  0.00000000E+00
  0.00000000E+00  0.00000000E+00  0.00000000E+00
  0.00000000E+00  0.00000000E+00  0.00000000E+00
  0.00000000E+00  0.00000000E+00  0.00000000E+00
  0.00000000E+00  0.00000000E+00  0.00000000E+00
  0.00000000E+00  0.00000000E+00  0.00000000E+00
  0.00000000E+00  0.00000000E+00  0.00000000E+00
  0.00000000E+00  0.00000000E+00  0.00000000E+00
  0.00000000E+00  0.00000000E+00  0.00000000E+00
  0.00000000E+00  0.00000000E+00  0.00000000E+00
  0.00000000E+00  0.00000000E+00  0.00000000E+00
  0.00000000E+00  0.00000000E+00  0.00000000E+00
  0.00000000E+00  0.00000000E+00  0.00000000E+00
  0.00000000E+00  0.00000000E+00  0.00000000E+00
  0.00000000E+00  0.00000000E+00  0.00000000E+00
  0.00000000E+00  0.00000000E+00  0.00000000E+00
  0.00000000E+00  0.00000000E+00  0.00000000E+00
  0.00000000E+00  0.00000000E+00  0.00000000E+00
  0.00000000E+00  0.00000000E+00  0.00000000E+00
  0.00000000E+00  0.00000000E+00  0.00000000E+00
  0.00000000E+00  0.00000000E+00  0.00000000E+00
  0.00000000E+00  0.00000000E+00  0.00000000E+00
  0.00000000E+00  0.00000000E+00  0.00000000E+00
  0.00000000E+00  0.00000000E+00  0.00000000E+00
  0.00000000E+00  0.00000000E+00  0.00000000E+00
  0.00000000E+00  0.00000000E+00  0.00000000E+00
  0.00000000E+00  0.00000000E+00  0.00000000E+00
  0.00000000E+00  0.00000000E+00  0.00000000E+00
  0.00000000E+00  0.00000000E+00  0.00000000E+00
  0.00000000E+00  0.00000000E+00  0.00000000E+00
  0.00000000E+00  0.00000000E+00  0.00000000E+00
