#BCC aalvarado POSCAR generator         
    12.76000000000000     
     1.0167849265292423   -0.0003020393719069    0.0011126970373809
    -0.0003024280636597    1.0184492209756899    0.0001403387642749
     0.0011117618066482    0.0001399221021846    1.0174805403026888
   Ta   W 
    76    52
Direct
  0.3782894478042483  0.3713684889111529  0.3722515675778919
  0.6259977637176696  0.3722555888438733  0.6236188062819860
  0.3777434795170618  0.3741658908601174  0.6255912656424343
  0.3760763698927296  0.6249631134360115  0.3740660896509989
  0.7485581731519652  0.7531682623618874  0.7477218548951109
  0.7523793463415170  0.5000155366945632  0.7498740529498452
  0.4998773806802033  0.7525699181486671  0.5008330406152985
  0.5009437335971778  0.7537242844555014  0.7485158300852882
  0.7520559607651935  0.7494235109205979  0.2473677646855642
  0.7531676420252383  0.4968551572411105  0.2499825143338105
  0.4994355473024488  0.7531875436340044  0.2514457606018372
  0.7501374188665647  0.2530670456169606  0.2521895497049467
  0.2498291997091348  0.2460728120288158  0.4994516457008773
  0.2466973091128501  0.4997751645070245  0.2505818209115779
  0.2513706257158128  0.4980620711754477  0.4981007404186772
  0.5001220047576613  0.2441742948226121  0.7484339463494047
  0.2509402286512231  0.2432575356719221  0.7495444731382432
  0.2510570881460673  0.7503114039810546  0.2501572565520894
  0.2524823933579264  0.7535961127454437  0.7483665555783767
  0.8738943724326802  0.8767150620565666  0.8768213626785195
  0.8709730527224451  0.6266197715642172  0.8780679645105444
  0.6242770295580762  0.6224548312197707  0.8762643038989034
  0.8725360580008349  0.8779929742789717  0.3752654129581912
  0.8723610311306536  0.6261319548067097  0.3783101386663613
  0.6266122223072813  0.8798787431459566  0.3751369471409364
  0.8708858484938350  0.3718293782419150  0.6238684809594264
  0.6227690413835626  0.3754641396765649  0.8752777671310381
  0.3778030913886428  0.3770906952082276  0.8744551419360593
  0.3756451113814816  0.6225245628273770  0.8746672746948307
  0.3767732345583461  0.8775402108569359  0.6224932603783470
  0.6237565907224607  0.6226204514464609  0.1222312642071028
  0.6267385691588281  0.8789581275630703  0.1250400090258305
  0.6210633794823659  0.3755991345221226  0.1233325588927017
  0.3787224609972458  0.3723290018895863  0.1259444922851232
  0.3778175143923657  0.6239091409762013  0.1231816242412593
  0.3739717602674926  0.8784138584666658  0.1259056116626080
  0.8728271001806458  0.1210098200051519  0.1276739035781587
  0.6238888960784835  0.1247285405655576  0.1265711975894178
  0.8720222498626027  0.1218393504509199  0.3753487312859395
  0.3773492427653524  0.1263056936382568  0.1288019954571628
  0.1278252250971854  0.3718109635725980  0.1260184666561984
  0.1271739797414974  0.3765057554786735  0.6280866195970095
  0.1257800598982509  0.6282605961780043  0.3788254269831129
  0.1280015990563119  0.6241653580142579  0.6254753934529583
  0.8727354458105767  0.1219567989939858  0.8746477049321844
  0.1269423573822990  0.3766522587608963  0.8733938670893051
  0.1272807299832361  0.6260293243595623  0.8741416513437732
  0.1269294733009654  0.8775405768850424  0.1267294534099183
  0.1255064652055078  0.8768687326607140  0.3734756290474248
  0.1233367842634215  0.8739418369639171  0.8761933103336054
  0.0014527862663910  0.0009593724386141  0.0015682116590501
 -0.0027157770719680  0.7514106566662818  0.7474148854538493
 -0.0018352654668218  0.7485589348307109  0.0046808452841840
  0.7469308211608140 -0.0007077890808275  0.7469712478291034
  0.0010330314957817  0.0011925964705404  0.5041061652428999
 -0.0015536390207152  0.7530279986679420  0.5044188625707585
 -0.0009753345832241  0.4980342278881217  0.4993157820552259
 -0.0048145407052655  0.4999163984063525  0.7512389105918353
 -0.0020685981680983  0.4995695497355785  0.0040515193703643
  0.5001392631939794  0.7559736183813054 -0.0045427259524689
  0.4990045933747819 -0.0002511283166503 -0.0062443994321031
 -0.0016177769898686  0.7485003755146570  0.2474525779031330
 -0.0014990340558728  0.4981222370043796  0.2502808420465684
  0.0004127471704218  0.2509288768581114  0.2523864719575971
  0.0011067179870929  0.2474796141747445  0.4997590818651444
 -0.0002761735550087  0.2468182290616678  0.7503648839289215
 -0.0005008804744071  0.2496778318269305  0.0007882590565536
  0.7512205791629791  0.2507622625394750 -0.0002238823640464
  0.2488362197964382  0.2456217838508405 -0.0017126136735786
  0.2474862931586624  0.4997745602657389  0.0032214927201528
  0.2503078002839921  0.0033623778677474  0.5005310057119440
  0.2501962037930632  0.0014672972986145  0.7488180026871842
  0.2509260013861672  0.0036953560250861 -0.0033955893029514
  0.4999772242155777  0.4998371087112810  0.4993918900121667
  0.6256143281317341  0.6235486417052591  0.6233726088369578
  0.6270533742088252  0.6244812476726588  0.3760030753596277
  0.6241386293986917  0.3729007979979936  0.3755282889690331
  0.3752381333761490  0.6251272142514983  0.6255520390469540
  0.7504667503327270  0.7526129368346121  0.5027563115147812
  0.7505329088514711  0.4976220799882190  0.4988762811871751
  0.5009859531678050  0.5002665222665680  0.7472029407450184
  0.5022963770415887  0.4984625890132732  0.2518578415314412
  0.5019120254180462  0.2481824162959465  0.2534420929550583
  0.7487928717843145  0.2477790013405111  0.4988496485642706
  0.5018061490780058  0.2460447231600566  0.4991790387824994
  0.2487886063186382  0.2476284871109125  0.2525356817587270
  0.7488017474622163  0.2462967229466662  0.7497636962039659
  0.2513237053517091  0.5010697256022484  0.7486360052943160
  0.2517812822099877  0.7531041034224917  0.5008493516524596
  0.8728742766198103  0.8772713059143412  0.6242357296100329
  0.8722388149199325  0.6246595630409898  0.6233660337946164
  0.6244910987986532  0.8785192629722129  0.6218856654476075
  0.6262982835196494  0.8766931633708823  0.8744062555816807
  0.8726724281439351  0.3736138257999801  0.3784832341243851
  0.8719475271109417  0.3735295976551320  0.8746106892867799
  0.3757318603458530  0.8789227739330462  0.3754272517101175
  0.3745739108833698  0.8755951345496886  0.8728172508588414
  0.8730577229723200  0.8775030995326274  0.1255592846517000
  0.8716903508488232  0.6250187974660625  0.1241743338545598
  0.8734863739104904  0.3741063837853715  0.1251650691051466
  0.6236897547965143  0.1246768327309077  0.3765479464347953
  0.3779354159537880  0.1253546491398503  0.3730202028845964
  0.8712362732606057  0.1249543911950506  0.6248536538985116
  0.6250385420023210  0.1249398731613375  0.6219503683260628
  0.3795016582989250  0.1233331037175109  0.6221725273480277
  0.1258726637239575  0.1237035385835519  0.1288271680722064
  0.1260747910163476  0.1232367008678883  0.3730816635063650
  0.1267048509796014  0.3729745580938951  0.3749972566111044
  0.1238388165221372  0.1241529609546766  0.6254766956620591
  0.1263920607313806  0.6262025880871632  0.1252286507069674
  0.6253021415388329  0.1252878536628962  0.8729427071853941
  0.3776515320772053  0.1251050443285890  0.8739441461815741
  0.1225388456460912  0.1229869992482709  0.8740638738215831
  0.1256637027585027  0.8752623682604429  0.6251515443635801
 -0.0001948733009358  0.0006814995398492  0.7478374297009922
  0.7499537940421336  0.7513960873663572  0.0006872855943606
  0.7475574200282510  0.0001423481878972 -0.0022952735472079
  0.7483597644917095  0.0020582225642352  0.5032808959374040
  0.7529910817740544  0.4976386205956961  0.0011900814298609
  0.4999592955189449  0.5000631024239542 -0.0006776086209438
  0.5003181612082783  0.0024533936995602  0.4998456993440477
  0.5011683528216768  0.0012386003575169  0.7488665106026959
  0.0011034458577669  0.0013579035654673  0.2507202650419706
  0.7491763842004298  0.0008944647973489  0.2509865101467092
  0.4992476079800743  0.0020873277046157  0.2531680965779307
  0.5004705547214091  0.2458896928652861 -0.0032922233668037
  0.2505424846797216  0.7517117981323418 -0.0000269974438927
  0.2507756339920758  0.0022216301197165  0.2525319942525960
 
  0.00000000E+00  0.00000000E+00  0.00000000E+00
  0.00000000E+00  0.00000000E+00  0.00000000E+00
  0.00000000E+00  0.00000000E+00  0.00000000E+00
  0.00000000E+00  0.00000000E+00  0.00000000E+00
  0.00000000E+00  0.00000000E+00  0.00000000E+00
  0.00000000E+00  0.00000000E+00  0.00000000E+00
  0.00000000E+00  0.00000000E+00  0.00000000E+00
  0.00000000E+00  0.00000000E+00  0.00000000E+00
  0.00000000E+00  0.00000000E+00  0.00000000E+00
  0.00000000E+00  0.00000000E+00  0.00000000E+00
  0.00000000E+00  0.00000000E+00  0.00000000E+00
  0.00000000E+00  0.00000000E+00  0.00000000E+00
  0.00000000E+00  0.00000000E+00  0.00000000E+00
  0.00000000E+00  0.00000000E+00  0.00000000E+00
  0.00000000E+00  0.00000000E+00  0.00000000E+00
  0.00000000E+00  0.00000000E+00  0.00000000E+00
  0.00000000E+00  0.00000000E+00  0.00000000E+00
  0.00000000E+00  0.00000000E+00  0.00000000E+00
  0.00000000E+00  0.00000000E+00  0.00000000E+00
  0.00000000E+00  0.00000000E+00  0.00000000E+00
  0.00000000E+00  0.00000000E+00  0.00000000E+00
  0.00000000E+00  0.00000000E+00  0.00000000E+00
  0.00000000E+00  0.00000000E+00  0.00000000E+00
  0.00000000E+00  0.00000000E+00  0.00000000E+00
  0.00000000E+00  0.00000000E+00  0.00000000E+00
  0.00000000E+00  0.00000000E+00  0.00000000E+00
  0.00000000E+00  0.00000000E+00  0.00000000E+00
  0.00000000E+00  0.00000000E+00  0.00000000E+00
  0.00000000E+00  0.00000000E+00  0.00000000E+00
  0.00000000E+00  0.00000000E+00  0.00000000E+00
  0.00000000E+00  0.00000000E+00  0.00000000E+00
  0.00000000E+00  0.00000000E+00  0.00000000E+00
  0.00000000E+00  0.00000000E+00  0.00000000E+00
  0.00000000E+00  0.00000000E+00  0.00000000E+00
  0.00000000E+00  0.00000000E+00  0.00000000E+00
  0.00000000E+00  0.00000000E+00  0.00000000E+00
  0.00000000E+00  0.00000000E+00  0.00000000E+00
  0.00000000E+00  0.00000000E+00  0.00000000E+00
  0.00000000E+00  0.00000000E+00  0.00000000E+00
  0.00000000E+00  0.00000000E+00  0.00000000E+00
  0.00000000E+00  0.00000000E+00  0.00000000E+00
  0.00000000E+00  0.00000000E+00  0.00000000E+00
  0.00000000E+00  0.00000000E+00  0.00000000E+00
  0.00000000E+00  0.00000000E+00  0.00000000E+00
  0.00000000E+00  0.00000000E+00  0.00000000E+00
  0.00000000E+00  0.00000000E+00  0.00000000E+00
  0.00000000E+00  0.00000000E+00  0.00000000E+00
  0.00000000E+00  0.00000000E+00  0.00000000E+00
  0.00000000E+00  0.00000000E+00  0.00000000E+00
  0.00000000E+00  0.00000000E+00  0.00000000E+00
  0.00000000E+00  0.00000000E+00  0.00000000E+00
  0.00000000E+00  0.00000000E+00  0.00000000E+00
  0.00000000E+00  0.00000000E+00  0.00000000E+00
  0.00000000E+00  0.00000000E+00  0.00000000E+00
  0.00000000E+00  0.00000000E+00  0.00000000E+00
  0.00000000E+00  0.00000000E+00  0.00000000E+00
  0.00000000E+00  0.00000000E+00  0.00000000E+00
  0.00000000E+00  0.00000000E+00  0.00000000E+00
  0.00000000E+00  0.00000000E+00  0.00000000E+00
  0.00000000E+00  0.00000000E+00  0.00000000E+00
  0.00000000E+00  0.00000000E+00  0.00000000E+00
  0.00000000E+00  0.00000000E+00  0.00000000E+00
  0.00000000E+00  0.00000000E+00  0.00000000E+00
  0.00000000E+00  0.00000000E+00  0.00000000E+00
  0.00000000E+00  0.00000000E+00  0.00000000E+00
  0.00000000E+00  0.00000000E+00  0.00000000E+00
  0.00000000E+00  0.00000000E+00  0.00000000E+00
  0.00000000E+00  0.00000000E+00  0.00000000E+00
  0.00000000E+00  0.00000000E+00  0.00000000E+00
  0.00000000E+00  0.00000000E+00  0.00000000E+00
  0.00000000E+00  0.00000000E+00  0.00000000E+00
  0.00000000E+00  0.00000000E+00  0.00000000E+00
  0.00000000E+00  0.00000000E+00  0.00000000E+00
  0.00000000E+00  0.00000000E+00  0.00000000E+00
  0.00000000E+00  0.00000000E+00  0.00000000E+00
  0.00000000E+00  0.00000000E+00  0.00000000E+00
  0.00000000E+00  0.00000000E+00  0.00000000E+00
  0.00000000E+00  0.00000000E+00  0.00000000E+00
  0.00000000E+00  0.00000000E+00  0.00000000E+00
  0.00000000E+00  0.00000000E+00  0.00000000E+00
  0.00000000E+00  0.00000000E+00  0.00000000E+00
  0.00000000E+00  0.00000000E+00  0.00000000E+00
  0.00000000E+00  0.00000000E+00  0.00000000E+00
  0.00000000E+00  0.00000000E+00  0.00000000E+00
  0.00000000E+00  0.00000000E+00  0.00000000E+00
  0.00000000E+00  0.00000000E+00  0.00000000E+00
  0.00000000E+00  0.00000000E+00  0.00000000E+00
  0.00000000E+00  0.00000000E+00  0.00000000E+00
  0.00000000E+00  0.00000000E+00  0.00000000E+00
  0.00000000E+00  0.00000000E+00  0.00000000E+00
  0.00000000E+00  0.00000000E+00  0.00000000E+00
  0.00000000E+00  0.00000000E+00  0.00000000E+00
  0.00000000E+00  0.00000000E+00  0.00000000E+00
  0.00000000E+00  0.00000000E+00  0.00000000E+00
  0.00000000E+00  0.00000000E+00  0.00000000E+00
  0.00000000E+00  0.00000000E+00  0.00000000E+00
  0.00000000E+00  0.00000000E+00  0.00000000E+00
  0.00000000E+00  0.00000000E+00  0.00000000E+00
  0.00000000E+00  0.00000000E+00  0.00000000E+00
  0.00000000E+00  0.00000000E+00  0.00000000E+00
  0.00000000E+00  0.00000000E+00  0.00000000E+00
  0.00000000E+00  0.00000000E+00  0.00000000E+00
  0.00000000E+00  0.00000000E+00  0.00000000E+00
  0.00000000E+00  0.00000000E+00  0.00000000E+00
  0.00000000E+00  0.00000000E+00  0.00000000E+00
  0.00000000E+00  0.00000000E+00  0.00000000E+00
  0.00000000E+00  0.00000000E+00  0.00000000E+00
  0.00000000E+00  0.00000000E+00  0.00000000E+00
  0.00000000E+00  0.00000000E+00  0.00000000E+00
  0.00000000E+00  0.00000000E+00  0.00000000E+00
  0.00000000E+00  0.00000000E+00  0.00000000E+00
  0.00000000E+00  0.00000000E+00  0.00000000E+00
  0.00000000E+00  0.00000000E+00  0.00000000E+00
  0.00000000E+00  0.00000000E+00  0.00000000E+00
  0.00000000E+00  0.00000000E+00  0.00000000E+00
  0.00000000E+00  0.00000000E+00  0.00000000E+00
  0.00000000E+00  0.00000000E+00  0.00000000E+00
  0.00000000E+00  0.00000000E+00  0.00000000E+00
  0.00000000E+00  0.00000000E+00  0.00000000E+00
  0.00000000E+00  0.00000000E+00  0.00000000E+00
  0.00000000E+00  0.00000000E+00  0.00000000E+00
  0.00000000E+00  0.00000000E+00  0.00000000E+00
  0.00000000E+00  0.00000000E+00  0.00000000E+00
  0.00000000E+00  0.00000000E+00  0.00000000E+00
  0.00000000E+00  0.00000000E+00  0.00000000E+00
  0.00000000E+00  0.00000000E+00  0.00000000E+00
  0.00000000E+00  0.00000000E+00  0.00000000E+00
  0.00000000E+00  0.00000000E+00  0.00000000E+00
