#generated using str2pos                
    1.000000000000000     
    12.8654740050236587   -0.0023651783888859   -0.0017997862608029
    -0.0023675556071391   12.8902857144596297   -0.0010134781008150
    -0.0018000677369784   -0.0010167460454526   12.8637818939457009
   Ta   W 
    51    77
Direct
  0.1228821112776783  0.1255904953141702  0.1263841436116935
  0.3767679747961402  0.1243508779763395  0.1269654467014330
  0.6253862427390348  0.1244874931707807  0.1252034530734588
  0.8746687406943606  0.1244691821113263  0.1252837521239981
  0.2507418683343538  0.4994577203624415  0.2511566383442847
  0.1227860577784869  0.3748313882734003  0.1250042752643175
  0.5015947432465276  0.5001977698112882  0.2513069170352939
  0.7501023858265774  0.5004407833286113  0.2496523922381484
  0.5006339229568123  0.7496391279151466  0.2516314108597862
  0.3741291554001892  0.6262751481739351  0.1241218978722558
  0.6264548408587847  0.8764147932178683  0.1241862847176198
  0.8738899272615834  0.8757349906975055  0.1258348680196325
  0.1245010411478840  0.1240121784345149  0.3750727035207744
  0.4991860675179769  0.2527989529558630  0.5006333826124415
  0.3731529423699058  0.1247711987672965  0.3726266134097269
  0.6274688367622298  0.1247645714399234  0.3726507262003221
  0.8755437106527251  0.1249771977346061  0.3745446151947010
  0.2503495608594893  0.4992366459863176  0.5006532943204163
  0.5003830433151487  0.5001930483210487  0.5003224786986157
  0.7500877523635773  0.5015331093390947  0.4995638004828325
 -0.0012139303206802  0.4992521723134201  0.5010851430516656
  0.2513899577655632  0.7476167638113930  0.5002003579360808
  0.1223297418526783  0.6273292030835894  0.3723534899310619
  0.7496179709353006  0.7498984071758292  0.5001463336711161
  0.1235447214928457  0.8757082567528535  0.3741270449294326
  0.5008197215777259 -0.0019893629194312  0.5002019431674648
  0.1242147414642347  0.1246694915083298  0.6248019826114188
  0.4999557792563444  0.2509454580308600  0.7491851828972581
  0.7516300949563848  0.2532448642069559  0.7512600520969194
  0.6292616721618060  0.1241416752207544  0.6235870887643941
  0.8767319724361160  0.1239631098128940  0.6239396627931921
  0.2486415494505576  0.5006939831950532  0.7489921656524825
  0.5008826127068154  0.5010005061240735  0.7493177592246413
  0.7504802330398034  0.5005302463643927  0.7506280666894958
  0.0000654972427194  0.5005051452858245  0.7498885360304577
  0.2492042987522353  0.7476386226721752  0.7519180272769428
  0.7509648956967334  0.7487085747894409  0.7488797531671260
 -0.0013671807893004  0.7486693638484018  0.7514172206009996
  0.1237301482701709  0.8785835131757789  0.6231089940383165
  0.4984779687742607  0.0002243425131713  0.7493558111795985
  0.3740795171734287  0.8749147126984262  0.6250907993374939
  0.2501302820572907  0.2498723670707072 -0.0011854431244177
  0.1227038709532633  0.1251876940812176  0.8727308271833382
  0.6271135706304555  0.1231586614012392  0.8781488918465280
  0.5026878604254440  0.5002391151766443  0.0004000041413764
  0.3734312431916676  0.3742457965060250  0.8762556135687635
  0.7503549422293491  0.5001142214490297  0.0008669311927463
  0.2483808089146371  0.7512292036065628 -0.0012058330889980
  0.0008520301844144  0.7486248326335775 -0.0006183573745083
  0.2500653350160955 -0.0033871713131544 -0.0007441057357472
  0.6254457678638466  0.8754280925492851  0.8775623846579637
  0.2501661704319014  0.2524950305849510  0.2509486721699604
  0.5007891004064703  0.2532910641817616  0.2502597839509583
  0.7505313413818254  0.2537691521516984  0.2496207078730340
 -0.0014233492986402  0.2526048841989137  0.2505747852011547
  0.3748157109622870  0.3732608493474278  0.1250425470678563
  0.6261317873878045  0.3716701813968090  0.1257857204052983
 -0.0019090475686165  0.5005117835498153  0.2497801768012197
  0.8767217954240847  0.3737409086515613  0.1252959238768084
  0.2505265992201582  0.7501727086706813  0.2485498867537827
  0.1238667329399662  0.6234162752391486  0.1258796650367466
  0.7498334801877607  0.7479103381223221  0.2519570252208569
  0.6262755737026731  0.6278963803571000  0.1244725067929927
 -0.0015854581677412  0.7490357876610666  0.2482911370139089
  0.8759927600659105  0.6258921198073132  0.1261621567544265
  0.2502935299526279 -0.0026521603498262  0.2480730337005737
  0.1233136417926529  0.8755441392600870  0.1274935486828976
  0.4993076755328037 -0.0033074445793002  0.2511617056060046
  0.3759911949057009  0.8755583575769254  0.1259026469880669
  0.7503772723452605 -0.0018419539378884  0.2515324666003235
 -0.0002449068043294 -0.0019140565800075  0.2495179661376417
  0.2501896665755327  0.2525431219636144  0.5006755655099855
  0.7508966537495304  0.2535223478367182  0.4998084261503380
  0.0003838857123743  0.2534510106134891  0.4996456650367470
  0.1235074345686220  0.3726086055075513  0.3737666230526323
  0.3740160364173303  0.3722161539392840  0.3743360414726376
  0.6266919079200773  0.3728981793264405  0.3737363769507065
  0.8758006961862621  0.3729943694722950  0.3738485132180251
  0.5013170098710780  0.7488190906131651  0.4991514843740463
  0.3746768492846172  0.6266096692863730  0.3746347175995606
  0.6257963976639684  0.6272814603923264  0.3752800040831952
 -0.0032658773116412  0.7484700586404286  0.5002773138855826
  0.8764989666175715  0.6266411673738159  0.3726159887500270
  0.2517656255996333  0.0000482588697435  0.4992782660161991
  0.3740627406571144  0.8760124158506936  0.3743557700006700
  0.7500641748057124 -0.0040426663888717  0.4996711485973573
  0.6263089085798978  0.8759466537744051  0.3736172281014773
 -0.0022081518440550 -0.0012717998154560  0.4997113993697640
  0.8755395879399062  0.8758128771581214  0.3740042906288449
  0.2500613730372457  0.2510513633628001  0.7487157581348891
  0.3714228796006204  0.1243552269965079  0.6239725361859834
 -0.0008356940104157  0.2524111413013852  0.7504771559181936
  0.1244258009208289  0.3709139639835467  0.6248895154629812
  0.3726477053989225  0.3735048583534621  0.6253378954505467
  0.6266434631846530  0.3746743805273686  0.6239533327798217
  0.8766786065326673  0.3724617065527389  0.6241687895785428
  0.1240575071943213  0.6256566858744751  0.6236330730820957
  0.5002824134152430  0.7487559603322795  0.7502084642138488
  0.3771516278934761  0.6271961328955730  0.6254149957279325
  0.6236104680474944  0.6269854025206103  0.6252787433730335
  0.8750634976730652  0.6262062171114431  0.6238154910192805
  0.2510421852446049  0.0000143956685617  0.7520551686862676
  0.7519608052052379 -0.0016089684768316  0.7498158142318093
  0.6254377778848191  0.8748401132378392  0.6253446593993279
 -0.0015862623180324 -0.0013861679571527  0.7513385305298844
  0.8759554021319861  0.8777547508464694  0.6240179926041809
  0.5005762787743037  0.2517439370795639  0.0005287201195200
  0.3747497741668792  0.1251961212654727  0.8753777922843270
  0.7514417246000678  0.2528355839850840 -0.0003072042082444
 -0.0019404521498813  0.2517507703489099 -0.0012630730853835
  0.8762022125090070  0.1246242382773092  0.8758903174691406
  0.2487268228160088  0.5013536164553170 -0.0004366588706622
  0.1237143316323175  0.3736462377526975  0.8760633463441605
  0.6257180063812827  0.3736087714025543  0.8777454172232673
 -0.0016546958751730  0.5008655106589167 -0.0007273531928564
  0.8770780446821455  0.3734279992612994  0.8772497122203551
  0.1245742595947645  0.6227128641258148  0.8772806129377851
  0.4992208912239287  0.7489346761997993  0.0000711185848352
  0.3758644614303339  0.6252427743461740  0.8765869099153908
  0.7514935244651446  0.7472096751902735 -0.0004362203045029
  0.6244943750851142  0.6285919623827034  0.8759826996212934
  0.8749596513953566  0.6245442061280692  0.8777208911487647
  0.1233775973913657  0.8774589748539838  0.8739489183746930
  0.4974155305065213 -0.0009762791573522 -0.0008185136434789
  0.3768897981251498  0.8747597682549040  0.8748690904482458
  0.7521214907037815  0.0001165081409927 -0.0011121740686271
  0.0001962605706696 -0.0017485813848175 -0.0018063119479680
  0.8736278156184084  0.8775596454197589  0.8759417382026564
 
  0.00000000E+00  0.00000000E+00  0.00000000E+00
  0.00000000E+00  0.00000000E+00  0.00000000E+00
  0.00000000E+00  0.00000000E+00  0.00000000E+00
  0.00000000E+00  0.00000000E+00  0.00000000E+00
  0.00000000E+00  0.00000000E+00  0.00000000E+00
  0.00000000E+00  0.00000000E+00  0.00000000E+00
  0.00000000E+00  0.00000000E+00  0.00000000E+00
  0.00000000E+00  0.00000000E+00  0.00000000E+00
  0.00000000E+00  0.00000000E+00  0.00000000E+00
  0.00000000E+00  0.00000000E+00  0.00000000E+00
  0.00000000E+00  0.00000000E+00  0.00000000E+00
  0.00000000E+00  0.00000000E+00  0.00000000E+00
  0.00000000E+00  0.00000000E+00  0.00000000E+00
  0.00000000E+00  0.00000000E+00  0.00000000E+00
  0.00000000E+00  0.00000000E+00  0.00000000E+00
  0.00000000E+00  0.00000000E+00  0.00000000E+00
  0.00000000E+00  0.00000000E+00  0.00000000E+00
  0.00000000E+00  0.00000000E+00  0.00000000E+00
  0.00000000E+00  0.00000000E+00  0.00000000E+00
  0.00000000E+00  0.00000000E+00  0.00000000E+00
  0.00000000E+00  0.00000000E+00  0.00000000E+00
  0.00000000E+00  0.00000000E+00  0.00000000E+00
  0.00000000E+00  0.00000000E+00  0.00000000E+00
  0.00000000E+00  0.00000000E+00  0.00000000E+00
  0.00000000E+00  0.00000000E+00  0.00000000E+00
  0.00000000E+00  0.00000000E+00  0.00000000E+00
  0.00000000E+00  0.00000000E+00  0.00000000E+00
  0.00000000E+00  0.00000000E+00  0.00000000E+00
  0.00000000E+00  0.00000000E+00  0.00000000E+00
  0.00000000E+00  0.00000000E+00  0.00000000E+00
  0.00000000E+00  0.00000000E+00  0.00000000E+00
  0.00000000E+00  0.00000000E+00  0.00000000E+00
  0.00000000E+00  0.00000000E+00  0.00000000E+00
  0.00000000E+00  0.00000000E+00  0.00000000E+00
  0.00000000E+00  0.00000000E+00  0.00000000E+00
  0.00000000E+00  0.00000000E+00  0.00000000E+00
  0.00000000E+00  0.00000000E+00  0.00000000E+00
  0.00000000E+00  0.00000000E+00  0.00000000E+00
  0.00000000E+00  0.00000000E+00  0.00000000E+00
  0.00000000E+00  0.00000000E+00  0.00000000E+00
  0.00000000E+00  0.00000000E+00  0.00000000E+00
  0.00000000E+00  0.00000000E+00  0.00000000E+00
  0.00000000E+00  0.00000000E+00  0.00000000E+00
  0.00000000E+00  0.00000000E+00  0.00000000E+00
  0.00000000E+00  0.00000000E+00  0.00000000E+00
  0.00000000E+00  0.00000000E+00  0.00000000E+00
  0.00000000E+00  0.00000000E+00  0.00000000E+00
  0.00000000E+00  0.00000000E+00  0.00000000E+00
  0.00000000E+00  0.00000000E+00  0.00000000E+00
  0.00000000E+00  0.00000000E+00  0.00000000E+00
  0.00000000E+00  0.00000000E+00  0.00000000E+00
  0.00000000E+00  0.00000000E+00  0.00000000E+00
  0.00000000E+00  0.00000000E+00  0.00000000E+00
  0.00000000E+00  0.00000000E+00  0.00000000E+00
  0.00000000E+00  0.00000000E+00  0.00000000E+00
  0.00000000E+00  0.00000000E+00  0.00000000E+00
  0.00000000E+00  0.00000000E+00  0.00000000E+00
  0.00000000E+00  0.00000000E+00  0.00000000E+00
  0.00000000E+00  0.00000000E+00  0.00000000E+00
  0.00000000E+00  0.00000000E+00  0.00000000E+00
  0.00000000E+00  0.00000000E+00  0.00000000E+00
  0.00000000E+00  0.00000000E+00  0.00000000E+00
  0.00000000E+00  0.00000000E+00  0.00000000E+00
  0.00000000E+00  0.00000000E+00  0.00000000E+00
  0.00000000E+00  0.00000000E+00  0.00000000E+00
  0.00000000E+00  0.00000000E+00  0.00000000E+00
  0.00000000E+00  0.00000000E+00  0.00000000E+00
  0.00000000E+00  0.00000000E+00  0.00000000E+00
  0.00000000E+00  0.00000000E+00  0.00000000E+00
  0.00000000E+00  0.00000000E+00  0.00000000E+00
  0.00000000E+00  0.00000000E+00  0.00000000E+00
  0.00000000E+00  0.00000000E+00  0.00000000E+00
  0.00000000E+00  0.00000000E+00  0.00000000E+00
  0.00000000E+00  0.00000000E+00  0.00000000E+00
  0.00000000E+00  0.00000000E+00  0.00000000E+00
  0.00000000E+00  0.00000000E+00  0.00000000E+00
  0.00000000E+00  0.00000000E+00  0.00000000E+00
  0.00000000E+00  0.00000000E+00  0.00000000E+00
  0.00000000E+00  0.00000000E+00  0.00000000E+00
  0.00000000E+00  0.00000000E+00  0.00000000E+00
  0.00000000E+00  0.00000000E+00  0.00000000E+00
  0.00000000E+00  0.00000000E+00  0.00000000E+00
  0.00000000E+00  0.00000000E+00  0.00000000E+00
  0.00000000E+00  0.00000000E+00  0.00000000E+00
  0.00000000E+00  0.00000000E+00  0.00000000E+00
  0.00000000E+00  0.00000000E+00  0.00000000E+00
  0.00000000E+00  0.00000000E+00  0.00000000E+00
  0.00000000E+00  0.00000000E+00  0.00000000E+00
  0.00000000E+00  0.00000000E+00  0.00000000E+00
  0.00000000E+00  0.00000000E+00  0.00000000E+00
  0.00000000E+00  0.00000000E+00  0.00000000E+00
  0.00000000E+00  0.00000000E+00  0.00000000E+00
  0.00000000E+00  0.00000000E+00  0.00000000E+00
  0.00000000E+00  0.00000000E+00  0.00000000E+00
  0.00000000E+00  0.00000000E+00  0.00000000E+00
  0.00000000E+00  0.00000000E+00  0.00000000E+00
  0.00000000E+00  0.00000000E+00  0.00000000E+00
  0.00000000E+00  0.00000000E+00  0.00000000E+00
  0.00000000E+00  0.00000000E+00  0.00000000E+00
  0.00000000E+00  0.00000000E+00  0.00000000E+00
  0.00000000E+00  0.00000000E+00  0.00000000E+00
  0.00000000E+00  0.00000000E+00  0.00000000E+00
  0.00000000E+00  0.00000000E+00  0.00000000E+00
  0.00000000E+00  0.00000000E+00  0.00000000E+00
  0.00000000E+00  0.00000000E+00  0.00000000E+00
  0.00000000E+00  0.00000000E+00  0.00000000E+00
  0.00000000E+00  0.00000000E+00  0.00000000E+00
  0.00000000E+00  0.00000000E+00  0.00000000E+00
  0.00000000E+00  0.00000000E+00  0.00000000E+00
  0.00000000E+00  0.00000000E+00  0.00000000E+00
  0.00000000E+00  0.00000000E+00  0.00000000E+00
  0.00000000E+00  0.00000000E+00  0.00000000E+00
  0.00000000E+00  0.00000000E+00  0.00000000E+00
  0.00000000E+00  0.00000000E+00  0.00000000E+00
  0.00000000E+00  0.00000000E+00  0.00000000E+00
  0.00000000E+00  0.00000000E+00  0.00000000E+00
  0.00000000E+00  0.00000000E+00  0.00000000E+00
  0.00000000E+00  0.00000000E+00  0.00000000E+00
  0.00000000E+00  0.00000000E+00  0.00000000E+00
  0.00000000E+00  0.00000000E+00  0.00000000E+00
  0.00000000E+00  0.00000000E+00  0.00000000E+00
  0.00000000E+00  0.00000000E+00  0.00000000E+00
  0.00000000E+00  0.00000000E+00  0.00000000E+00
  0.00000000E+00  0.00000000E+00  0.00000000E+00
  0.00000000E+00  0.00000000E+00  0.00000000E+00
  0.00000000E+00  0.00000000E+00  0.00000000E+00
  0.00000000E+00  0.00000000E+00  0.00000000E+00
  0.00000000E+00  0.00000000E+00  0.00000000E+00
