#BCC aalvarado POSCAR generator         
    12.76000000000000     
     1.0175824353506506   -0.0000908967778611   -0.0011798249550023
    -0.0000907866921557    1.0173221957402516   -0.0003829266692398
    -0.0011804079059494   -0.0003830983179659    1.0174341751768272
   Ta   W 
    76    52
Direct
  0.4992899705755716  0.4984723063827001  0.4985856731986850
  0.6253292315812939  0.6275570798020063  0.6258938026027459
  0.6249456043374927  0.6235179110736064  0.3727760673546787
  0.3708182485951327  0.3743590748674438  0.6253823524095007
  0.3745978319880718  0.6280585576025188  0.6271240503091102
  0.7495656467132042  0.7537744618455847  0.4989776352685009
  0.7485490545045255  0.4999629531995494  0.7497296960074513
  0.5000873896974792  0.4987226016277789  0.7486943425804551
  0.4977118598092337  0.7522432093460714  0.4992173639423811
  0.7515001346027433  0.7517442800525455  0.2523268938111409
  0.7500224054643063  0.2509948996882421  0.2534651994168822
  0.4999295281960626  0.2494913519593300  0.2524239747754976
  0.5011414066804694  0.2515875679587106  0.4976194987055875
  0.2488056700534605  0.2474581777217508  0.4977278306228969
  0.2522238556141815  0.5011958381076010  0.2518216595730184
  0.5016735162230856  0.2501302980990914  0.7492877533091161
  0.2458252129163870  0.5031299558214608  0.7512465118785557
  0.2516979775136964  0.7507501162682554  0.2537491931700118
  0.2499688155742442  0.7511182634423080  0.4974672996124120
  0.8749088745700311  0.8764327749212708  0.6243212665412349
  0.8710387091387992  0.6259720505976417  0.6253108230431353
  0.8753845110459160  0.6268433111921428  0.8776677827393303
  0.6245291973665154  0.6303807888212396  0.8752774801301376
  0.8735970923190255  0.6236508054123168  0.3736741347766798
  0.6229856308446960  0.8757704032548570  0.3731558496307780
  0.8725548650790768  0.3743148974365754  0.6241548723924529
  0.8751379663342002  0.3742088832363035  0.8732282353254838
  0.6263535591137639  0.3740329441878876  0.8744533293506221
  0.3711005687193113  0.3735294430552287  0.8761520704521961
  0.3738120419721217  0.6296198598708577  0.8762766440111767
  0.3730296234427533  0.8771924473607611  0.6290650736790339
  0.8775205548132667  0.8709384556225825  0.1237116557929868
  0.8767194582819169  0.6267272520486257  0.1239825551587281
  0.6236785803271518  0.6268227756801530  0.1265401465519496
  0.6220063637791438  0.8724546351576045  0.1249193302029714
  0.6236518062881041  0.3772653767882904  0.1283678668674973
  0.3726378111602273  0.3748259654504539  0.1244213546149183
  0.3759793613069664  0.6267377486350313  0.1233474217532479
  0.3750260047132172  0.8749078184371220  0.1236697716947220
  0.8748991955579705  0.1226509182645438  0.1256377180314604
  0.6242047439106522  0.1221590480380963  0.1274768374151591
  0.8747954885764215  0.1231521036227520  0.3788847283055229
  0.3726523423274590  0.1222776580395349  0.3728614869516744
  0.6263106060696028  0.1246733831267241  0.6245336370505450
  0.3734067921717135  0.1221409024273429  0.6267405472162044
  0.1287016011362335  0.3748093290364793  0.1229821902013673
  0.1275815590981655  0.3744887060610206  0.3747247144134170
  0.1271313268729000  0.3743783185128867  0.6239362407757915
  0.1244050054350469  0.6257165683200628  0.1220035216868381
  0.1238826077352983  0.6241798636285208  0.3740435153042518
  0.8754825722152872  0.1268275019980311  0.8738855114914180
  0.3708740212354841  0.1233622531122560  0.8735646851176521
  0.1298156897504145  0.1245111804966333  0.8749875976972440
  0.1273894196650641  0.8733136430176586  0.1235039768827089
  0.1278407934545466  0.8783286629895110  0.6251857917604959
  0.0020213134171591 -0.0010177560070649 -0.0013465385701640
 -0.0002985562148785  0.0002377695281259  0.7495614353131004
  0.0021949659811379  0.7511606735400412  0.7512505787790085
  0.7497299511517626 -0.0007738325618344  0.7509947777233861
  0.7487339964868305 -0.0012696381172840 -0.0041403033787785
  0.0017387226084288  0.7512797881933830  0.5000981293772043
 -0.0008042119935814  0.4996594383158376  0.5000998244478336
  0.0036016604242051  0.5022952231230871  0.7503251135466057
  0.7502759096222475  0.4985362356758072  0.0013972201185392
  0.5003863952345056  0.4994429667344677 -0.0006047445305361
  0.5003733471779409 -0.0010513450229656  0.4991313621526797
  0.4995790048062140  0.0003589757228782 -0.0023567977232593
  0.0034484437328532  0.0000316431503786  0.2520255441870958
  0.7512131332446295 -0.0010546777847375  0.2527123982202304
 -0.0014758417217274  0.4959331093713908  0.2500498565169061
  0.0003548171282573  0.2489399207752416  0.2503988650656150
  0.0004188381362677  0.2468307373404593  0.4997539287456587
  0.0014674367994110  0.2485327361992442  0.7476863582120673
  0.0018695389002904  0.2498056789377957  0.0014320330019289
  0.7501163908424672  0.2492037829320059  0.0022254616653951
  0.4999269236709479  0.2462689351362569  0.0006170825293331
  0.2483981285136947  0.5010020049084304 -0.0021939870861231
  0.2509404071718917 -0.0005605333220360  0.0003610251288442
  0.6261353324880238  0.3771577621528669  0.3750638155338179
  0.3744527385694975  0.3746538593635790  0.3735878281464807
  0.6273840254894596  0.3737646938216266  0.6230250533740234
  0.3760615285418737  0.6244860476808276  0.3742147812723427
  0.7492886714942725  0.7546118069460593  0.7503769720760726
  0.7476134304745665  0.4973074940323307  0.4991356369745285
  0.5000568610066051  0.7540605223939864  0.7505843880978119
  0.7511099904700033  0.4970980238355289  0.2508455168351241
  0.4985053009561992  0.4987330045026052  0.2532639323643787
  0.4972884137236522  0.7500676732801778  0.2518767957797811
  0.7491140309573225  0.2498513369679482  0.4989584512686865
  0.2507893920880425  0.2469902609696549  0.2498027092955117
  0.2510873438400454  0.5016294969881691  0.4996626830591155
  0.7491317182997054  0.2479533120179693  0.7477945235997742
  0.2477067983953550  0.2498892617088715  0.7491519731281626
  0.2480985805562892  0.7510419693162234  0.7516888786237795
  0.8747661213034008  0.8724202939940471  0.8753372340460258
  0.6238550667829997  0.8765131096214783  0.6270401440813428
  0.6230384808755712  0.8726505814778772  0.8741053435180348
  0.8766949084491252  0.8763503900489777  0.3765186285072088
  0.8720806672726388  0.3744557228919926  0.3773297775739950
  0.3749944910091548  0.8775760333338603  0.3730543290673282
  0.3747292013756937  0.8751522703535514  0.8742931497400998
  0.8762226851408731  0.3767589073119210  0.1251474768301502
  0.6256481671601041  0.1237431038327767  0.3770443365245411
  0.3731396575668670  0.1229099440531223  0.1258934281647857
  0.8727438267276628  0.1247851112401616  0.6229109099642823
  0.1294089196300800  0.1240026177324752  0.1246130658876793
  0.1272032519423729  0.1222918227440184  0.3747485115256471
  0.1268612685252741  0.1226829367154644  0.6248353494880197
  0.1265494968146252  0.6265328844642701  0.6251857434001612
  0.6240047426196916  0.1237239960125603  0.8722310594260146
  0.1264620779626278  0.3752334384212612  0.8770721210915450
  0.1259088805463739  0.6274007818647142  0.8781448959738574
  0.1256865478971041  0.8767752155200269  0.3749267827713338
  0.1289076819688670  0.8746423201071465  0.8757835516152390
  0.0020554127159063  0.7509409486340591 -0.0035475975204588
  0.7503518085550632  0.7521704332877147 -0.0012143043671391
  0.0009150131397403  0.0003563924547801  0.4993101836998242
  0.7494566208730988  0.0006246176048700  0.5014487964476367
  0.0005761892091137  0.4989714293824669 -0.0007272659216021
  0.4989286785020327  0.7532505368807323 -0.0021691541973070
  0.5019836113057842 -0.0007740339223452  0.7513756281960493
  0.0012598724126347  0.7515468569093837  0.2517247765804607
  0.4976911550679548  0.0007872215140896  0.2504446934506366
  0.2492583071810982  0.2481136871260188  0.0014804980313087
  0.2494700419316372  0.7519780825601533 -0.0023112306070430
  0.2491136032967604 -0.0002973124425035  0.2501739830201545
  0.2483047739035027 -0.0001088442101217  0.4980297234114190
  0.2489841913935952 -0.0011174429938891  0.7510857041471449
 
  0.00000000E+00  0.00000000E+00  0.00000000E+00
  0.00000000E+00  0.00000000E+00  0.00000000E+00
  0.00000000E+00  0.00000000E+00  0.00000000E+00
  0.00000000E+00  0.00000000E+00  0.00000000E+00
  0.00000000E+00  0.00000000E+00  0.00000000E+00
  0.00000000E+00  0.00000000E+00  0.00000000E+00
  0.00000000E+00  0.00000000E+00  0.00000000E+00
  0.00000000E+00  0.00000000E+00  0.00000000E+00
  0.00000000E+00  0.00000000E+00  0.00000000E+00
  0.00000000E+00  0.00000000E+00  0.00000000E+00
  0.00000000E+00  0.00000000E+00  0.00000000E+00
  0.00000000E+00  0.00000000E+00  0.00000000E+00
  0.00000000E+00  0.00000000E+00  0.00000000E+00
  0.00000000E+00  0.00000000E+00  0.00000000E+00
  0.00000000E+00  0.00000000E+00  0.00000000E+00
  0.00000000E+00  0.00000000E+00  0.00000000E+00
  0.00000000E+00  0.00000000E+00  0.00000000E+00
  0.00000000E+00  0.00000000E+00  0.00000000E+00
  0.00000000E+00  0.00000000E+00  0.00000000E+00
  0.00000000E+00  0.00000000E+00  0.00000000E+00
  0.00000000E+00  0.00000000E+00  0.00000000E+00
  0.00000000E+00  0.00000000E+00  0.00000000E+00
  0.00000000E+00  0.00000000E+00  0.00000000E+00
  0.00000000E+00  0.00000000E+00  0.00000000E+00
  0.00000000E+00  0.00000000E+00  0.00000000E+00
  0.00000000E+00  0.00000000E+00  0.00000000E+00
  0.00000000E+00  0.00000000E+00  0.00000000E+00
  0.00000000E+00  0.00000000E+00  0.00000000E+00
  0.00000000E+00  0.00000000E+00  0.00000000E+00
  0.00000000E+00  0.00000000E+00  0.00000000E+00
  0.00000000E+00  0.00000000E+00  0.00000000E+00
  0.00000000E+00  0.00000000E+00  0.00000000E+00
  0.00000000E+00  0.00000000E+00  0.00000000E+00
  0.00000000E+00  0.00000000E+00  0.00000000E+00
  0.00000000E+00  0.00000000E+00  0.00000000E+00
  0.00000000E+00  0.00000000E+00  0.00000000E+00
  0.00000000E+00  0.00000000E+00  0.00000000E+00
  0.00000000E+00  0.00000000E+00  0.00000000E+00
  0.00000000E+00  0.00000000E+00  0.00000000E+00
  0.00000000E+00  0.00000000E+00  0.00000000E+00
  0.00000000E+00  0.00000000E+00  0.00000000E+00
  0.00000000E+00  0.00000000E+00  0.00000000E+00
  0.00000000E+00  0.00000000E+00  0.00000000E+00
  0.00000000E+00  0.00000000E+00  0.00000000E+00
  0.00000000E+00  0.00000000E+00  0.00000000E+00
  0.00000000E+00  0.00000000E+00  0.00000000E+00
  0.00000000E+00  0.00000000E+00  0.00000000E+00
  0.00000000E+00  0.00000000E+00  0.00000000E+00
  0.00000000E+00  0.00000000E+00  0.00000000E+00
  0.00000000E+00  0.00000000E+00  0.00000000E+00
  0.00000000E+00  0.00000000E+00  0.00000000E+00
  0.00000000E+00  0.00000000E+00  0.00000000E+00
  0.00000000E+00  0.00000000E+00  0.00000000E+00
  0.00000000E+00  0.00000000E+00  0.00000000E+00
  0.00000000E+00  0.00000000E+00  0.00000000E+00
  0.00000000E+00  0.00000000E+00  0.00000000E+00
  0.00000000E+00  0.00000000E+00  0.00000000E+00
  0.00000000E+00  0.00000000E+00  0.00000000E+00
  0.00000000E+00  0.00000000E+00  0.00000000E+00
  0.00000000E+00  0.00000000E+00  0.00000000E+00
  0.00000000E+00  0.00000000E+00  0.00000000E+00
  0.00000000E+00  0.00000000E+00  0.00000000E+00
  0.00000000E+00  0.00000000E+00  0.00000000E+00
  0.00000000E+00  0.00000000E+00  0.00000000E+00
  0.00000000E+00  0.00000000E+00  0.00000000E+00
  0.00000000E+00  0.00000000E+00  0.00000000E+00
  0.00000000E+00  0.00000000E+00  0.00000000E+00
  0.00000000E+00  0.00000000E+00  0.00000000E+00
  0.00000000E+00  0.00000000E+00  0.00000000E+00
  0.00000000E+00  0.00000000E+00  0.00000000E+00
  0.00000000E+00  0.00000000E+00  0.00000000E+00
  0.00000000E+00  0.00000000E+00  0.00000000E+00
  0.00000000E+00  0.00000000E+00  0.00000000E+00
  0.00000000E+00  0.00000000E+00  0.00000000E+00
  0.00000000E+00  0.00000000E+00  0.00000000E+00
  0.00000000E+00  0.00000000E+00  0.00000000E+00
  0.00000000E+00  0.00000000E+00  0.00000000E+00
  0.00000000E+00  0.00000000E+00  0.00000000E+00
  0.00000000E+00  0.00000000E+00  0.00000000E+00
  0.00000000E+00  0.00000000E+00  0.00000000E+00
  0.00000000E+00  0.00000000E+00  0.00000000E+00
  0.00000000E+00  0.00000000E+00  0.00000000E+00
  0.00000000E+00  0.00000000E+00  0.00000000E+00
  0.00000000E+00  0.00000000E+00  0.00000000E+00
  0.00000000E+00  0.00000000E+00  0.00000000E+00
  0.00000000E+00  0.00000000E+00  0.00000000E+00
  0.00000000E+00  0.00000000E+00  0.00000000E+00
  0.00000000E+00  0.00000000E+00  0.00000000E+00
  0.00000000E+00  0.00000000E+00  0.00000000E+00
  0.00000000E+00  0.00000000E+00  0.00000000E+00
  0.00000000E+00  0.00000000E+00  0.00000000E+00
  0.00000000E+00  0.00000000E+00  0.00000000E+00
  0.00000000E+00  0.00000000E+00  0.00000000E+00
  0.00000000E+00  0.00000000E+00  0.00000000E+00
  0.00000000E+00  0.00000000E+00  0.00000000E+00
  0.00000000E+00  0.00000000E+00  0.00000000E+00
  0.00000000E+00  0.00000000E+00  0.00000000E+00
  0.00000000E+00  0.00000000E+00  0.00000000E+00
  0.00000000E+00  0.00000000E+00  0.00000000E+00
  0.00000000E+00  0.00000000E+00  0.00000000E+00
  0.00000000E+00  0.00000000E+00  0.00000000E+00
  0.00000000E+00  0.00000000E+00  0.00000000E+00
  0.00000000E+00  0.00000000E+00  0.00000000E+00
  0.00000000E+00  0.00000000E+00  0.00000000E+00
  0.00000000E+00  0.00000000E+00  0.00000000E+00
  0.00000000E+00  0.00000000E+00  0.00000000E+00
  0.00000000E+00  0.00000000E+00  0.00000000E+00
  0.00000000E+00  0.00000000E+00  0.00000000E+00
  0.00000000E+00  0.00000000E+00  0.00000000E+00
  0.00000000E+00  0.00000000E+00  0.00000000E+00
  0.00000000E+00  0.00000000E+00  0.00000000E+00
  0.00000000E+00  0.00000000E+00  0.00000000E+00
  0.00000000E+00  0.00000000E+00  0.00000000E+00
  0.00000000E+00  0.00000000E+00  0.00000000E+00
  0.00000000E+00  0.00000000E+00  0.00000000E+00
  0.00000000E+00  0.00000000E+00  0.00000000E+00
  0.00000000E+00  0.00000000E+00  0.00000000E+00
  0.00000000E+00  0.00000000E+00  0.00000000E+00
  0.00000000E+00  0.00000000E+00  0.00000000E+00
  0.00000000E+00  0.00000000E+00  0.00000000E+00
  0.00000000E+00  0.00000000E+00  0.00000000E+00
  0.00000000E+00  0.00000000E+00  0.00000000E+00
  0.00000000E+00  0.00000000E+00  0.00000000E+00
  0.00000000E+00  0.00000000E+00  0.00000000E+00
  0.00000000E+00  0.00000000E+00  0.00000000E+00
  0.00000000E+00  0.00000000E+00  0.00000000E+00
  0.00000000E+00  0.00000000E+00  0.00000000E+00
  0.00000000E+00  0.00000000E+00  0.00000000E+00
