#BCC aalvarado POSCAR generator         
    12.76000000000000     
     1.0086659073700026   -0.0002172590261939   -0.0003528632697295
    -0.0002171400423590    1.0089922442131345   -0.0002879645445365
    -0.0003530742729460   -0.0002881885032720    1.0086880951835233
   Ta   W 
    51    77
Direct
  0.3726781295355878  0.3734921223701557  0.6262441913224640
  0.3744715292503459  0.6245798031553839  0.3739028202136360
  0.3741629458596877  0.6237717008424134  0.6271141292276009
  0.7489268296797228  0.7491588382017572  0.7511012005118918
  0.4987591968713002  0.7539086589208570  0.5013327823952919
  0.7537245930793138  0.7507799345349883  0.2482484103229003
  0.7493916563751328  0.2511916045112019  0.5011152964496626
  0.4999570149532238  0.2472709729920172  0.5004998527488370
  0.2485262206368771  0.4976109217429714  0.2501022213714643
  0.7486838149280611  0.2490417378827161  0.7484568270589025
  0.2463815474995086  0.4974326422061894  0.7505593763056931
  0.2476067492000464  0.7517668815862197  0.5003345270142249
  0.8749160689935818  0.8763922079234620  0.8717335483220847
  0.8752361427358071  0.8742184332701344  0.6246555458928226
  0.6270063049575044  0.8757578546678092  0.3742642686870430
  0.8741721185823741  0.3798593975933036  0.8743707525455845
  0.6240235489492832  0.3757447074489602  0.8748574394799722
  0.3742523836603188  0.6279914400333193  0.8744668417148211
  0.3752821165144924  0.8736169052702136  0.8758387613275492
  0.6242587966673233  0.6236034415046430  0.1259349471374909
  0.6251871244340911  0.3745888893009839  0.1264994440602891
  0.3741285956071054  0.8749715008260052  0.1249824554633083
  0.8744179734605241  0.1246361801759770  0.1278757680590224
  0.6251423036482944  0.1253450816261264  0.1260770084019902
  0.8753588526381187  0.1237521982961421  0.3725205370551017
  0.3750408238423696  0.1250950821562476  0.1256909891977767
  0.8740736040664622  0.1213095998075632  0.6244444520463781
  0.1275644995137336  0.1245364541716488  0.1266925257212549
  0.1262720734442175  0.1261880364626736  0.3723393026092406
  0.1244848693711089  0.6272202081390874  0.1251076757931254
  0.1234407761100944  0.6260308753705370  0.8743293072497922
  0.1277124751327886  0.8750361426179366  0.1266075985869663
  0.0000962403950617  0.0004906981004913 -0.0022325037565460
 -0.0028830024657830  0.7509078993221205 -0.0001187547113106
  0.7502908048612380  0.7503971743686180 -0.0000204471058944
  0.0030379570206197 -0.0023720016577357  0.4997230989534679
  0.4970168733935557  0.4997355448192091  0.0002067685562312
  0.4987776476982321  0.0014104276741407  0.5014775116407999
  0.5023362988558300  0.0002053690209491 -0.0022004434030706
 -0.0001594133015268  0.5000553740000144  0.2518837650177864
  0.0010659226567985  0.2533740230493678  0.5011620205370336
  0.0020670445195768  0.2507692707979575  0.7495426517197910
  0.0015169910869576  0.2507217062921374 -0.0019086138648265
  0.7516845839423234  0.2492863228840592 -0.0016579918063951
  0.2506012678739414  0.4965686978630783  0.0015147328149530
  0.2514902049110491 -0.0010457730486318  0.5018815468151118
  0.2498551094393290  0.0014083642722983  0.7485700179695122
  0.4994889740549360  0.4970946160126780  0.5003656053307411
  0.6260053081140393  0.6244977075624026  0.6257038174340533
  0.6260762769781887  0.6242809560837693  0.3741468609058722
  0.6258089406982570  0.3756589597368278  0.3720740903632642
  0.3737683386932869  0.3734740412603185  0.3748973864897126
  0.6241114003247534  0.3764510064541204  0.6264264934769366
  0.7526467738820174  0.7492932670852760  0.4998475982340422
  0.7529034509513514  0.4992505270467740  0.5006868189358190
  0.7510006919785727  0.5012549404570681  0.7485855192716709
  0.5002020971774993  0.4986916337029437  0.7514353176615249
  0.5015729723030461  0.7522815316211539  0.7501952128236534
  0.7545424404794024  0.5006672164804793  0.2501620646832560
  0.4968992635706818  0.4986185112356862  0.2488923009885287
  0.4998768524366080  0.7510407865557518  0.2493789753404856
  0.7507132097494559  0.2507234520005825  0.2509584852227441
  0.4979009160825608  0.2493162430446252  0.2519554918772248
  0.2512182165175593  0.2521325474934892  0.2507864170524569
  0.2500083782012798  0.2496296682675430  0.5003265807751286
  0.2460679358435792  0.4992579900756096  0.4993738278687535
  0.4992667127292292  0.2475991075392262  0.7498741589733913
  0.2494942614867822  0.2483051168081649  0.7510819053397484
  0.2497022754723232  0.7494370543819338  0.2526694173855183
  0.2479075216474372  0.7520787982462073  0.7478782671324399
  0.8754239676767597  0.6249239595036262  0.6234098331203677
  0.8756330806694400  0.6235847104346524  0.8733815263272665
  0.6236842402674717  0.6243585222557805  0.8745328688282229
  0.6262556815281495  0.8754941537445273  0.6255769874338878
  0.6241649057166592  0.8762053712754266  0.8740319810722254
  0.8755179465605130  0.8741900732579049  0.3754286727397655
  0.8757334767835859  0.6250522948956666  0.3769363476658588
  0.8746400019935751  0.3766596598931506  0.3744044887200255
  0.8755473016187399  0.3791581209959096  0.6247215477374388
  0.3756050755846776  0.3720155102429784  0.8744104099225789
  0.3754657475655009  0.8751042206418304  0.3716989662939518
  0.3755092043500919  0.8745418109523396  0.6283664902577810
  0.8759710855680921  0.8768484616897294  0.1260916831107458
  0.8749538264124788  0.6235648808673536  0.1253217695621937
  0.6239789582297334  0.8758215108932881  0.1257030929925342
  0.8747299357556404  0.3759170791361837  0.1253013659473211
  0.3755057135375037  0.3714090627809747  0.1259008666852258
  0.3757104571996309  0.6271455910020560  0.1259762079702698
  0.6257975578124026  0.1240519342790145  0.3729764667068386
  0.3741809665629328  0.1257372939836832  0.3730624731262686
  0.6247486499596548  0.1229989863505099  0.6268169159133576
  0.3754418593788985  0.1268268554300233  0.6270957985007556
  0.1249612651304231  0.3733074136406502  0.1255643303750681
  0.1253394927913321  0.3743870783267638  0.3761943368785428
  0.1262618815649242  0.1260975547774440  0.6254092796583268
  0.1255517995214703  0.3765516988958543  0.6237627522688657
  0.1235601580410451  0.6255346662287979  0.3765490117565804
  0.1219110433119304  0.6247284548718175  0.6251388237306365
  0.8745492081760050  0.1231186652145207  0.8739614448559677
  0.6234461497471775  0.1244676633353225  0.8742707363037201
  0.3752804163676164  0.1257817604464897  0.8753951100785312
  0.1277923817502531  0.1253502035702988  0.8750607944977344
  0.1245836855142334  0.3751908241855255  0.8746863999702504
  0.1241821031040579  0.8742883552370291  0.3730452418432754
  0.1231347456379527  0.8728787861483176  0.6258733979011095
  0.1260404633180091  0.8743398827129530  0.8743217111033844
  0.0029690433491397  0.0009176044228102  0.7500986082050559
 -0.0000306286300715  0.7490252865457889  0.7481167441297126
  0.7471543075464342  0.0004622337433489  0.7503990258104641
  0.7494022198068502 -0.0009395112107848 -0.0010735900340426
  0.0012547930667604  0.7482763903017827  0.4993763743257361
  0.7481766507092327 -0.0001518099543221  0.4998760805057763
 -0.0008190191048242  0.5010311001164961  0.4997992344013835
 -0.0007669195903014  0.5006446036289158  0.7474219781033302
 -0.0005684197058489  0.4997885091616820  0.0011938249163547
  0.7506808599879961  0.5025427899473076 -0.0003301486280367
  0.5022450125465351  0.7500818883038264 -0.0000943088940858
  0.5002733739686878  0.0011557336091631  0.7493125525444057
  0.0000006645490750 -0.0027732258111829  0.2505491763275084
 -0.0011107105907691  0.7489945910727476  0.2522548728816781
  0.7503012703430357 -0.0021353737341251  0.2498586244823608
  0.5008112989820812  0.0003146791558080  0.2517754782556207
  0.0009441770467163  0.2542176661731479  0.2498660456512681
  0.4979024490566321  0.2495496096754018 -0.0015738856202812
  0.2497376138436336  0.2514480866920329 -0.0011841407941170
  0.2495573793790428  0.7495661500648468  0.0002407261507882
  0.2517660209923426 -0.0003415883979548  0.2531517836435592
  0.2501047072806094  0.0018422818745171 -0.0032419654591111
 
  0.00000000E+00  0.00000000E+00  0.00000000E+00
  0.00000000E+00  0.00000000E+00  0.00000000E+00
  0.00000000E+00  0.00000000E+00  0.00000000E+00
  0.00000000E+00  0.00000000E+00  0.00000000E+00
  0.00000000E+00  0.00000000E+00  0.00000000E+00
  0.00000000E+00  0.00000000E+00  0.00000000E+00
  0.00000000E+00  0.00000000E+00  0.00000000E+00
  0.00000000E+00  0.00000000E+00  0.00000000E+00
  0.00000000E+00  0.00000000E+00  0.00000000E+00
  0.00000000E+00  0.00000000E+00  0.00000000E+00
  0.00000000E+00  0.00000000E+00  0.00000000E+00
  0.00000000E+00  0.00000000E+00  0.00000000E+00
  0.00000000E+00  0.00000000E+00  0.00000000E+00
  0.00000000E+00  0.00000000E+00  0.00000000E+00
  0.00000000E+00  0.00000000E+00  0.00000000E+00
  0.00000000E+00  0.00000000E+00  0.00000000E+00
  0.00000000E+00  0.00000000E+00  0.00000000E+00
  0.00000000E+00  0.00000000E+00  0.00000000E+00
  0.00000000E+00  0.00000000E+00  0.00000000E+00
  0.00000000E+00  0.00000000E+00  0.00000000E+00
  0.00000000E+00  0.00000000E+00  0.00000000E+00
  0.00000000E+00  0.00000000E+00  0.00000000E+00
  0.00000000E+00  0.00000000E+00  0.00000000E+00
  0.00000000E+00  0.00000000E+00  0.00000000E+00
  0.00000000E+00  0.00000000E+00  0.00000000E+00
  0.00000000E+00  0.00000000E+00  0.00000000E+00
  0.00000000E+00  0.00000000E+00  0.00000000E+00
  0.00000000E+00  0.00000000E+00  0.00000000E+00
  0.00000000E+00  0.00000000E+00  0.00000000E+00
  0.00000000E+00  0.00000000E+00  0.00000000E+00
  0.00000000E+00  0.00000000E+00  0.00000000E+00
  0.00000000E+00  0.00000000E+00  0.00000000E+00
  0.00000000E+00  0.00000000E+00  0.00000000E+00
  0.00000000E+00  0.00000000E+00  0.00000000E+00
  0.00000000E+00  0.00000000E+00  0.00000000E+00
  0.00000000E+00  0.00000000E+00  0.00000000E+00
  0.00000000E+00  0.00000000E+00  0.00000000E+00
  0.00000000E+00  0.00000000E+00  0.00000000E+00
  0.00000000E+00  0.00000000E+00  0.00000000E+00
  0.00000000E+00  0.00000000E+00  0.00000000E+00
  0.00000000E+00  0.00000000E+00  0.00000000E+00
  0.00000000E+00  0.00000000E+00  0.00000000E+00
  0.00000000E+00  0.00000000E+00  0.00000000E+00
  0.00000000E+00  0.00000000E+00  0.00000000E+00
  0.00000000E+00  0.00000000E+00  0.00000000E+00
  0.00000000E+00  0.00000000E+00  0.00000000E+00
  0.00000000E+00  0.00000000E+00  0.00000000E+00
  0.00000000E+00  0.00000000E+00  0.00000000E+00
  0.00000000E+00  0.00000000E+00  0.00000000E+00
  0.00000000E+00  0.00000000E+00  0.00000000E+00
  0.00000000E+00  0.00000000E+00  0.00000000E+00
  0.00000000E+00  0.00000000E+00  0.00000000E+00
  0.00000000E+00  0.00000000E+00  0.00000000E+00
  0.00000000E+00  0.00000000E+00  0.00000000E+00
  0.00000000E+00  0.00000000E+00  0.00000000E+00
  0.00000000E+00  0.00000000E+00  0.00000000E+00
  0.00000000E+00  0.00000000E+00  0.00000000E+00
  0.00000000E+00  0.00000000E+00  0.00000000E+00
  0.00000000E+00  0.00000000E+00  0.00000000E+00
  0.00000000E+00  0.00000000E+00  0.00000000E+00
  0.00000000E+00  0.00000000E+00  0.00000000E+00
  0.00000000E+00  0.00000000E+00  0.00000000E+00
  0.00000000E+00  0.00000000E+00  0.00000000E+00
  0.00000000E+00  0.00000000E+00  0.00000000E+00
  0.00000000E+00  0.00000000E+00  0.00000000E+00
  0.00000000E+00  0.00000000E+00  0.00000000E+00
  0.00000000E+00  0.00000000E+00  0.00000000E+00
  0.00000000E+00  0.00000000E+00  0.00000000E+00
  0.00000000E+00  0.00000000E+00  0.00000000E+00
  0.00000000E+00  0.00000000E+00  0.00000000E+00
  0.00000000E+00  0.00000000E+00  0.00000000E+00
  0.00000000E+00  0.00000000E+00  0.00000000E+00
  0.00000000E+00  0.00000000E+00  0.00000000E+00
  0.00000000E+00  0.00000000E+00  0.00000000E+00
  0.00000000E+00  0.00000000E+00  0.00000000E+00
  0.00000000E+00  0.00000000E+00  0.00000000E+00
  0.00000000E+00  0.00000000E+00  0.00000000E+00
  0.00000000E+00  0.00000000E+00  0.00000000E+00
  0.00000000E+00  0.00000000E+00  0.00000000E+00
  0.00000000E+00  0.00000000E+00  0.00000000E+00
  0.00000000E+00  0.00000000E+00  0.00000000E+00
  0.00000000E+00  0.00000000E+00  0.00000000E+00
  0.00000000E+00  0.00000000E+00  0.00000000E+00
  0.00000000E+00  0.00000000E+00  0.00000000E+00
  0.00000000E+00  0.00000000E+00  0.00000000E+00
  0.00000000E+00  0.00000000E+00  0.00000000E+00
  0.00000000E+00  0.00000000E+00  0.00000000E+00
  0.00000000E+00  0.00000000E+00  0.00000000E+00
  0.00000000E+00  0.00000000E+00  0.00000000E+00
  0.00000000E+00  0.00000000E+00  0.00000000E+00
  0.00000000E+00  0.00000000E+00  0.00000000E+00
  0.00000000E+00  0.00000000E+00  0.00000000E+00
  0.00000000E+00  0.00000000E+00  0.00000000E+00
  0.00000000E+00  0.00000000E+00  0.00000000E+00
  0.00000000E+00  0.00000000E+00  0.00000000E+00
  0.00000000E+00  0.00000000E+00  0.00000000E+00
  0.00000000E+00  0.00000000E+00  0.00000000E+00
  0.00000000E+00  0.00000000E+00  0.00000000E+00
  0.00000000E+00  0.00000000E+00  0.00000000E+00
  0.00000000E+00  0.00000000E+00  0.00000000E+00
  0.00000000E+00  0.00000000E+00  0.00000000E+00
  0.00000000E+00  0.00000000E+00  0.00000000E+00
  0.00000000E+00  0.00000000E+00  0.00000000E+00
  0.00000000E+00  0.00000000E+00  0.00000000E+00
  0.00000000E+00  0.00000000E+00  0.00000000E+00
  0.00000000E+00  0.00000000E+00  0.00000000E+00
  0.00000000E+00  0.00000000E+00  0.00000000E+00
  0.00000000E+00  0.00000000E+00  0.00000000E+00
  0.00000000E+00  0.00000000E+00  0.00000000E+00
  0.00000000E+00  0.00000000E+00  0.00000000E+00
  0.00000000E+00  0.00000000E+00  0.00000000E+00
  0.00000000E+00  0.00000000E+00  0.00000000E+00
  0.00000000E+00  0.00000000E+00  0.00000000E+00
  0.00000000E+00  0.00000000E+00  0.00000000E+00
  0.00000000E+00  0.00000000E+00  0.00000000E+00
  0.00000000E+00  0.00000000E+00  0.00000000E+00
  0.00000000E+00  0.00000000E+00  0.00000000E+00
  0.00000000E+00  0.00000000E+00  0.00000000E+00
  0.00000000E+00  0.00000000E+00  0.00000000E+00
  0.00000000E+00  0.00000000E+00  0.00000000E+00
  0.00000000E+00  0.00000000E+00  0.00000000E+00
  0.00000000E+00  0.00000000E+00  0.00000000E+00
  0.00000000E+00  0.00000000E+00  0.00000000E+00
  0.00000000E+00  0.00000000E+00  0.00000000E+00
  0.00000000E+00  0.00000000E+00  0.00000000E+00
  0.00000000E+00  0.00000000E+00  0.00000000E+00
  0.00000000E+00  0.00000000E+00  0.00000000E+00
  0.00000000E+00  0.00000000E+00  0.00000000E+00
