#BCC aalvarado POSCAR generator         
    12.76000000000000     
     1.0177278090530717    0.0005274755360489    0.0004509077768321
     0.0005273435587914    1.0183489334472475   -0.0003735100329259
     0.0004508070735772   -0.0003735804630958    1.0162589902853725
   Ta   W 
    76    52
Direct
  0.5013046782073419  0.4995578462676711  0.5025083023862769
  0.6213468103026849  0.6259369562999794  0.3725451170303323
  0.3773124814054237  0.3751075838366029  0.6264597377355186
  0.3778993360245788  0.6277265013397818  0.3755608952600129
  0.7509651490174105  0.7496520304400085  0.7474586544014223
  0.7506283114941331  0.7520166610732933  0.4984643705316502
  0.7510860449826303  0.5012723630977487  0.5010750654058840
  0.7499904314735575  0.5026694818626195  0.7472229850424940
  0.7494326463721225  0.7540307191806838  0.2529846381068271
  0.7502149567865178  0.2487184373508966  0.2514824061499593
  0.5005535357579195  0.2470439989323797  0.2525235640770248
  0.5031375481727974  0.2459613658934039  0.4999790156326364
  0.2531705803805249  0.2466082037093417  0.4990190786938666
  0.2512629400146685  0.5014153747074653  0.2480000463874073
  0.2531409557012604  0.5006569097242574  0.5012009049295151
  0.5016306923505353  0.2474852057913473  0.7476298593508289
  0.2525868505668403  0.2462578898725920  0.7512624597352865
  0.2536557511652978  0.5034863453518146  0.7496123027298707
  0.2508449889141323  0.7509233507974429  0.2508032514427868
  0.2522720515414222  0.7497016610206479  0.7481372051695511
  0.8763637255607223  0.8756867247837505  0.8770134741730663
  0.8771238585977137  0.8787675674731870  0.6246882206167638
  0.6235383796529341  0.6269279403018994  0.8765101343359782
  0.6226308753409232  0.8725026262044725  0.8747834421886626
  0.8758466271200702  0.3740417948498941  0.6250341454517689
  0.8710676189580456  0.3752483734683695  0.8743216784126843
  0.6258782005633882  0.3746342304195152  0.8768062169769332
  0.3777606778219472  0.3759342887260908  0.8756809892279267
  0.3778929748483201  0.8740002482884678  0.8753261074977285
  0.8760039284605248  0.8766255218681714  0.1238231940951605
  0.8705080102547155  0.6269044732327690  0.1228296106935726
  0.6247938161082196  0.6257061668734007  0.1254392445283828
  0.8708223502301541  0.3758805469398824  0.1249134434607390
  0.6258407532068664  0.3772331845164646  0.1240685271507188
  0.3742550001513005  0.8757612983116017  0.1262066790323993
  0.6256454109606195  0.1274916235312847  0.1241748885992373
  0.8768327654325838  0.1240655304415920  0.3743694402947673
  0.3725071385443988  0.1241668052040168  0.1258298839027431
  0.8752244656615360  0.1247303613182429  0.6236636388031804
  0.3768015493477602  0.1186070433787860  0.6233727496180744
  0.1255257583188950  0.1224117014891929  0.1278312585812212
  0.1246386434910545  0.1221029642274309  0.3722551813944152
  0.1250847263441744  0.3733577569832509  0.1264099380605117
  0.1253033498639125  0.3727733916596447  0.3735631484875596
  0.1245004551546401  0.1201756687250555  0.6224066324275331
  0.1232875783053238  0.3774298558427275  0.6246180280727063
  0.1234469947826084  0.6266138977420042  0.1228531467000274
  0.1266245648216573  0.6257128168019958  0.3780161445024116
  0.1248601344956597  0.6236014005373055  0.6234076301222026
  0.8740650199256127  0.1246134596324094  0.8741376303166287
  0.6256315371296375  0.1273924341176033  0.8750176081619254
  0.1237324533800043  0.1196481810499720  0.8768067189349884
  0.1256304494782368  0.3782204071393780  0.8750775566273493
  0.1234870102216031  0.6247710467051059  0.8753243458579276
  0.1229911462056436  0.8785988619078756  0.1247126945959578
  0.1231664514544306  0.8755789332340085  0.8775563980496908
 -0.0009462769720278  0.7493112373028543  0.7466258184877380
  0.7465428953856948 -0.0009952495916598  0.7467577482734501
  0.7479820111803449  0.0006105889256880  0.0027979676584733
 -0.0010992479188738  0.7512369378903166  0.4991578490841828
  0.7459848735651858 -0.0014031135031526  0.4985555916128138
 -0.0023898604405480  0.5000990544185711 -0.0002330827215998
  0.4964033529645562  0.5020281898960256  0.0011671809577052
  0.5015942733960821 -0.0003946228217977  0.0021368188985332
 -0.0020873376624565  0.7512398532547814  0.2551923657121424
 -0.0021420119973728  0.5016701656074065  0.2517050498200927
  0.5013077960301557 -0.0006152245360014  0.2538609634978012
 -0.0001208115953451  0.2503546427338343  0.4986962486502547
  0.0014383969885567  0.2495144635804758  0.7504961447068661
 -0.0008502894829010  0.2499755372245381  0.0006147082079360
  0.2512317899711856  0.2497778057446912 -0.0008324898247142
  0.2523142732310743  0.7478465534173617  0.0002656662029637
  0.2519892918745806 -0.0038683317691939  0.7478216786457197
  0.6211959185125634  0.6274543311945665  0.6257121563708209
  0.6262726819961284  0.3771651356932674  0.3730479794603805
  0.3763433171111664  0.3749976766108862  0.3728491963983676
  0.6273532125732090  0.3740151325270504  0.6259249374102235
  0.3774090332863301  0.6278678610649793  0.6246992395414946
  0.4999851042411961  0.5010631121252794  0.7502101589877780
  0.4991513397794024  0.7535346570722158  0.5011603976982713
  0.4986429983472406  0.7503306103047052  0.7480426829554873
  0.7513194326991848  0.5013159150754745  0.2528209929809429
  0.4976466305640143  0.5003287496883810  0.2473771551489413
  0.5001802348227690  0.7537593135885224  0.2509654436840293
  0.7483204660559355  0.2497546327116053  0.4985873030262973
  0.2526657845693708  0.2495304514379353  0.2494244845067133
  0.7478418176761499  0.2501862059971101  0.7472971099677417
  0.2512305667045505  0.7529927308990153  0.5004570895889502
  0.8763540414568313  0.6240090265100635  0.6243399068533957
  0.8736260607980606  0.6259712297114395  0.8765290940024446
  0.6207382441895887  0.8746736369144016  0.6244122245756490
  0.8753832676583858  0.8792050375556935  0.3735770807587385
  0.8735614277924142  0.6243408975273972  0.3746421240476814
  0.6222085129909036  0.8749197101215872  0.3756575234254306
  0.8746417622262123  0.3738812621529265  0.3750635022647300
  0.3771806353230936  0.6255047481951320  0.8750237226288249
  0.3752107934388341  0.8742115746696982  0.3775775693795889
  0.3769723297063635  0.8737797963177840  0.6228625534805080
  0.6250482762518782  0.8733732709318882  0.1262519004139878
  0.3754523672097533  0.3744516069802561  0.1248735533399842
  0.3772110210897105  0.6261393108243355  0.1257328467784314
  0.8756810957385253  0.1243398275376210  0.1270366730831258
  0.6271384143246727  0.1234409703760578  0.3759607875907361
  0.3732511443942682  0.1208275099965048  0.3749381998768440
  0.6252493860449878  0.1235414890313715  0.6249635682100806
  0.3766727368528456  0.1223462462053342  0.8764559932703588
  0.1270424914828524  0.8778153708344082  0.3755265501056019
  0.1262033838684116  0.8751526534225861  0.6225338656239774
 -0.0025463349151994  0.0021933121607472  0.0022476005647071
  0.0014092314300394 -0.0019022574927596  0.7482997397871441
 -0.0014753752419753  0.7492484268993516 -0.0010751431167941
  0.7481712916331263  0.7519529296076118  0.0007060104357884
  0.0014624229654092 -0.0037093017934399  0.4977064294187499
 -0.0038312823395341  0.5016262467775948  0.4977948300442643
 -0.0026531458705453  0.5027267972932877  0.7499131669792174
  0.7490095450850323  0.5022825505795180 -0.0021494532548578
  0.4982376222548732  0.7491459396767393  0.0012888397801654
  0.5009281057953845 -0.0023135501902209  0.4985927003773651
  0.4999193414863521 -0.0009448885067960  0.7475865941470874
 -0.0011767986029461 -0.0011119393392890  0.2512991777916460
  0.7483570162359643 -0.0002709031258315  0.2518386465292911
 -0.0029538110243147  0.2499221757863628  0.2496963352055231
  0.7511727995364481  0.2486666007584238  0.0019231424555204
  0.4977446431776227  0.2503876744129382  0.0004401890402435
  0.2531720450302989  0.5011755149584195  0.0008975317639617
  0.2514323459201008 -0.0020177757069388  0.2542756580068250
  0.2522200990774566 -0.0042163561478372  0.4993689283251179
  0.2521100472430834  0.0004006093331001 -0.0007523497405864
 
  0.00000000E+00  0.00000000E+00  0.00000000E+00
  0.00000000E+00  0.00000000E+00  0.00000000E+00
  0.00000000E+00  0.00000000E+00  0.00000000E+00
  0.00000000E+00  0.00000000E+00  0.00000000E+00
  0.00000000E+00  0.00000000E+00  0.00000000E+00
  0.00000000E+00  0.00000000E+00  0.00000000E+00
  0.00000000E+00  0.00000000E+00  0.00000000E+00
  0.00000000E+00  0.00000000E+00  0.00000000E+00
  0.00000000E+00  0.00000000E+00  0.00000000E+00
  0.00000000E+00  0.00000000E+00  0.00000000E+00
  0.00000000E+00  0.00000000E+00  0.00000000E+00
  0.00000000E+00  0.00000000E+00  0.00000000E+00
  0.00000000E+00  0.00000000E+00  0.00000000E+00
  0.00000000E+00  0.00000000E+00  0.00000000E+00
  0.00000000E+00  0.00000000E+00  0.00000000E+00
  0.00000000E+00  0.00000000E+00  0.00000000E+00
  0.00000000E+00  0.00000000E+00  0.00000000E+00
  0.00000000E+00  0.00000000E+00  0.00000000E+00
  0.00000000E+00  0.00000000E+00  0.00000000E+00
  0.00000000E+00  0.00000000E+00  0.00000000E+00
  0.00000000E+00  0.00000000E+00  0.00000000E+00
  0.00000000E+00  0.00000000E+00  0.00000000E+00
  0.00000000E+00  0.00000000E+00  0.00000000E+00
  0.00000000E+00  0.00000000E+00  0.00000000E+00
  0.00000000E+00  0.00000000E+00  0.00000000E+00
  0.00000000E+00  0.00000000E+00  0.00000000E+00
  0.00000000E+00  0.00000000E+00  0.00000000E+00
  0.00000000E+00  0.00000000E+00  0.00000000E+00
  0.00000000E+00  0.00000000E+00  0.00000000E+00
  0.00000000E+00  0.00000000E+00  0.00000000E+00
  0.00000000E+00  0.00000000E+00  0.00000000E+00
  0.00000000E+00  0.00000000E+00  0.00000000E+00
  0.00000000E+00  0.00000000E+00  0.00000000E+00
  0.00000000E+00  0.00000000E+00  0.00000000E+00
  0.00000000E+00  0.00000000E+00  0.00000000E+00
  0.00000000E+00  0.00000000E+00  0.00000000E+00
  0.00000000E+00  0.00000000E+00  0.00000000E+00
  0.00000000E+00  0.00000000E+00  0.00000000E+00
  0.00000000E+00  0.00000000E+00  0.00000000E+00
  0.00000000E+00  0.00000000E+00  0.00000000E+00
  0.00000000E+00  0.00000000E+00  0.00000000E+00
  0.00000000E+00  0.00000000E+00  0.00000000E+00
  0.00000000E+00  0.00000000E+00  0.00000000E+00
  0.00000000E+00  0.00000000E+00  0.00000000E+00
  0.00000000E+00  0.00000000E+00  0.00000000E+00
  0.00000000E+00  0.00000000E+00  0.00000000E+00
  0.00000000E+00  0.00000000E+00  0.00000000E+00
  0.00000000E+00  0.00000000E+00  0.00000000E+00
  0.00000000E+00  0.00000000E+00  0.00000000E+00
  0.00000000E+00  0.00000000E+00  0.00000000E+00
  0.00000000E+00  0.00000000E+00  0.00000000E+00
  0.00000000E+00  0.00000000E+00  0.00000000E+00
  0.00000000E+00  0.00000000E+00  0.00000000E+00
  0.00000000E+00  0.00000000E+00  0.00000000E+00
  0.00000000E+00  0.00000000E+00  0.00000000E+00
  0.00000000E+00  0.00000000E+00  0.00000000E+00
  0.00000000E+00  0.00000000E+00  0.00000000E+00
  0.00000000E+00  0.00000000E+00  0.00000000E+00
  0.00000000E+00  0.00000000E+00  0.00000000E+00
  0.00000000E+00  0.00000000E+00  0.00000000E+00
  0.00000000E+00  0.00000000E+00  0.00000000E+00
  0.00000000E+00  0.00000000E+00  0.00000000E+00
  0.00000000E+00  0.00000000E+00  0.00000000E+00
  0.00000000E+00  0.00000000E+00  0.00000000E+00
  0.00000000E+00  0.00000000E+00  0.00000000E+00
  0.00000000E+00  0.00000000E+00  0.00000000E+00
  0.00000000E+00  0.00000000E+00  0.00000000E+00
  0.00000000E+00  0.00000000E+00  0.00000000E+00
  0.00000000E+00  0.00000000E+00  0.00000000E+00
  0.00000000E+00  0.00000000E+00  0.00000000E+00
  0.00000000E+00  0.00000000E+00  0.00000000E+00
  0.00000000E+00  0.00000000E+00  0.00000000E+00
  0.00000000E+00  0.00000000E+00  0.00000000E+00
  0.00000000E+00  0.00000000E+00  0.00000000E+00
  0.00000000E+00  0.00000000E+00  0.00000000E+00
  0.00000000E+00  0.00000000E+00  0.00000000E+00
  0.00000000E+00  0.00000000E+00  0.00000000E+00
  0.00000000E+00  0.00000000E+00  0.00000000E+00
  0.00000000E+00  0.00000000E+00  0.00000000E+00
  0.00000000E+00  0.00000000E+00  0.00000000E+00
  0.00000000E+00  0.00000000E+00  0.00000000E+00
  0.00000000E+00  0.00000000E+00  0.00000000E+00
  0.00000000E+00  0.00000000E+00  0.00000000E+00
  0.00000000E+00  0.00000000E+00  0.00000000E+00
  0.00000000E+00  0.00000000E+00  0.00000000E+00
  0.00000000E+00  0.00000000E+00  0.00000000E+00
  0.00000000E+00  0.00000000E+00  0.00000000E+00
  0.00000000E+00  0.00000000E+00  0.00000000E+00
  0.00000000E+00  0.00000000E+00  0.00000000E+00
  0.00000000E+00  0.00000000E+00  0.00000000E+00
  0.00000000E+00  0.00000000E+00  0.00000000E+00
  0.00000000E+00  0.00000000E+00  0.00000000E+00
  0.00000000E+00  0.00000000E+00  0.00000000E+00
  0.00000000E+00  0.00000000E+00  0.00000000E+00
  0.00000000E+00  0.00000000E+00  0.00000000E+00
  0.00000000E+00  0.00000000E+00  0.00000000E+00
  0.00000000E+00  0.00000000E+00  0.00000000E+00
  0.00000000E+00  0.00000000E+00  0.00000000E+00
  0.00000000E+00  0.00000000E+00  0.00000000E+00
  0.00000000E+00  0.00000000E+00  0.00000000E+00
  0.00000000E+00  0.00000000E+00  0.00000000E+00
  0.00000000E+00  0.00000000E+00  0.00000000E+00
  0.00000000E+00  0.00000000E+00  0.00000000E+00
  0.00000000E+00  0.00000000E+00  0.00000000E+00
  0.00000000E+00  0.00000000E+00  0.00000000E+00
  0.00000000E+00  0.00000000E+00  0.00000000E+00
  0.00000000E+00  0.00000000E+00  0.00000000E+00
  0.00000000E+00  0.00000000E+00  0.00000000E+00
  0.00000000E+00  0.00000000E+00  0.00000000E+00
  0.00000000E+00  0.00000000E+00  0.00000000E+00
  0.00000000E+00  0.00000000E+00  0.00000000E+00
  0.00000000E+00  0.00000000E+00  0.00000000E+00
  0.00000000E+00  0.00000000E+00  0.00000000E+00
  0.00000000E+00  0.00000000E+00  0.00000000E+00
  0.00000000E+00  0.00000000E+00  0.00000000E+00
  0.00000000E+00  0.00000000E+00  0.00000000E+00
  0.00000000E+00  0.00000000E+00  0.00000000E+00
  0.00000000E+00  0.00000000E+00  0.00000000E+00
  0.00000000E+00  0.00000000E+00  0.00000000E+00
  0.00000000E+00  0.00000000E+00  0.00000000E+00
  0.00000000E+00  0.00000000E+00  0.00000000E+00
  0.00000000E+00  0.00000000E+00  0.00000000E+00
  0.00000000E+00  0.00000000E+00  0.00000000E+00
  0.00000000E+00  0.00000000E+00  0.00000000E+00
  0.00000000E+00  0.00000000E+00  0.00000000E+00
  0.00000000E+00  0.00000000E+00  0.00000000E+00
  0.00000000E+00  0.00000000E+00  0.00000000E+00
  0.00000000E+00  0.00000000E+00  0.00000000E+00
