#BCC aalvarado POSCAR generator         
    12.76000000000000     
     1.0088859455472248    0.0000145116543183   -0.0003757150985914
     0.0000144781061033    1.0088010251210850   -0.0000513199472144
    -0.0003757846450395   -0.0000513630951086    1.0090509625405060
   Ta   W 
    51    77
Direct
  0.6241537967823111  0.6252062324589833  0.6263988608048958
  0.6229220419781917  0.6237439108998456  0.3762732694650740
  0.6245373618084527  0.3772088349906157  0.6257354964841367
  0.3738080009095876  0.6239844191836085  0.3744841737918945
  0.7483465310609525  0.7522906371770697  0.5002345682297966
  0.7502528751721881  0.4972204659872349  0.4999385432916655
  0.4978566044904731  0.4983367170657778  0.7521478094578850
  0.7486797080355972  0.7498096016471973  0.2492819911055771
  0.4971302763625722  0.4963609341357226  0.2482440686718069
  0.4977329820931032  0.7481587025151206  0.2481401124907482
  0.7505037963820371  0.2517274696237410  0.2494463001230267
  0.7510967064299715  0.2492118357300164  0.5006296074818163
  0.4965827697889939  0.2492316572499015  0.5001971486974405
  0.2499386919508084  0.4974241111451966  0.4996086332699000
  0.7506025868061731  0.2488325804502171  0.7510743886263122
  0.4983224155513506  0.2489557818660744  0.7515822795754868
  0.2504368074926145  0.2503863990668447  0.7499530436240388
  0.2497546813776919  0.4970878910164450  0.7504541310978647
  0.2515175704173245  0.7488181287841283  0.5001986023352557
  0.8761316866946940  0.8732011333354097  0.6251266743918584
  0.8752248807047693  0.6249326243672172  0.6245478360159865
  0.6221555190092880  0.8759127695967224  0.8744861832615708
  0.8781358805381962  0.8756428038356477  0.3726086939931701
  0.8783547241290014  0.6235492677647427  0.3744163559761272
  0.6217929101554055  0.8782929963093109  0.3742399889346200
  0.8796184619698713  0.3758969394015232  0.3736802778272156
  0.3750386784680977  0.6263588625560353  0.8771858403805146
  0.3736188699364119  0.8776040634150309  0.3744319737691590
  0.3750167032215476  0.8751115177433501  0.8751446700902892
  0.8769129395034881  0.8789311820240892  0.1258066084205363
  0.8775438468959248  0.6229513516918896  0.1281177915184519
  0.6236927769982524  0.6224980889040466  0.1231021580310463
  0.6229836076963250  0.8784655468664111  0.1223300732098767
  0.3729398880988707  0.8770672769063981  0.1232153138286606
  0.8766938047081284  0.1245764321321779  0.1237141090799054
  0.6234047602093407  0.1248653787952719  0.1237895898796084
  0.6212397124473942  0.1237384776804460  0.3719792579481560
  0.1242607001838504  0.6254408960548333  0.6241530286738709
  0.1258356017708371  0.1254491233093826  0.8778954689738009
  0.1259378996825639  0.8764234257526112  0.3727606209989789
  0.1281238679425120  0.8755989348389005  0.6251970183499194
 -0.0000302007109639  0.0019407151089107  0.7517089925103266
  0.0007045307777352  0.7500609939941313  0.7554624007367144
  0.0027149294784951  0.7494278199892277 -0.0012911666995631
  0.7518508767232019  0.7481475125935082 -0.0029403584859056
  0.7497027405878113  0.0028517699589243  0.7496111669896796
  0.0011024764544438  0.0060309719861193  0.5002662373898061
  0.7500581854171697  0.0031304715620576  0.5026885267069453
  0.0011059622811167  0.4977091711463582  0.7530297042763249
  0.0019485750603715  0.4979675139711672 -0.0002948977731476
  0.7506016899462874  0.4974315243549385 -0.0019365315304034
  0.4995332820696910  0.4964429171719454  0.0003256582929540
  0.4992155582771857  0.0018554269996917  0.7486855450944160
  0.4976984325470625  0.0041196754270014 -0.0018359262517878
  0.0036723918714501  0.0033058711271646  0.2494634826092687
  0.7509446649500683  0.0026177403650093  0.2503358563743097
  0.0032198639810646  0.2504865364745229  0.2496713742970246
 -0.0002256318979413  0.2509087312042120  0.7499026709843436
  0.0012673114887658  0.2511135591570594  0.0005788157081390
  0.4982935095481493  0.2506161551697273 -0.0004582553206957
  0.2507798298562955  0.2505580433852481  0.0018038428071238
  0.2511808327226427  0.0019207694092351  0.7500646624460648
  0.4972412333532702  0.4972168079941753  0.5000699506098549
  0.6235279181658490  0.3744343678031019  0.3736349444914969
  0.3724234128790838  0.3728253367081044  0.3727991561412227
  0.3737290712911716  0.3732981397973366  0.6235999919720646
  0.3762537040783576  0.6269154022001545  0.6261292321961023
  0.7497249711377182  0.7508325081262127  0.7515417311472780
  0.7508083381892999  0.4981379760703024  0.7528176187438768
  0.4982121346164361  0.7516221052349598  0.5024408171510206
  0.4995885340438304  0.7504214999960004  0.7488605222541715
  0.7491939530766298  0.4962698454938784  0.2483725209204166
  0.4966653610031156  0.2518354718649261  0.2489006427791440
  0.2494453275222472  0.2499934724304954  0.2495156690674204
  0.2493667831236738  0.2503075171894946  0.4993252230015089
  0.2492949593369058  0.4973358628068091  0.2488333507257869
  0.2486000350566373  0.7484711249327364  0.2476745927485882
  0.2506685964552958  0.7501421156848329  0.7507448728921090
  0.8741265116693520  0.8768038924560632  0.8763460383840623
  0.8737897346892154  0.6235806924798863  0.8736051610179046
  0.6228965906551551  0.6254808461556336  0.8735835615535870
  0.6216554876571554  0.8741102925347641  0.6265693826558680
  0.8773185787910239  0.3752075441707491  0.6253922745484598
  0.8754873385051686  0.3722689984512115  0.8755634139951550
  0.6248140467110654  0.3738727660942000  0.8769861610317555
  0.3744551557664890  0.3741796116341150  0.8799011297164954
  0.3754824070264338  0.8768699487947170  0.6262995860609565
  0.8773139968346493  0.3725063024795799  0.1253387722497348
  0.6229823186308617  0.3728311233678218  0.1234592265052378
  0.3730449614879929  0.3728808245550452  0.1246409601785205
  0.3722776526394803  0.6236566431380234  0.1227629730416292
  0.8778083104824708  0.1266730565864419  0.3723397431117838
  0.3737351881902532  0.1258354964422470  0.1250758706631535
  0.3726698055343524  0.1250104777025334  0.3739954650638091
  0.8776641942216775  0.1277269589542651  0.6260574214306799
  0.6218802271611621  0.1239693258624858  0.6256468548290937
  0.3731033983564683  0.1225908667821478  0.6245344207502204
  0.1258481631213442  0.1259183428750681  0.1253669597240859
  0.1270225193095275  0.1270127880821377  0.3733752759372589
  0.1272850401063686  0.3736105514742193  0.1262425185345126
  0.1253047403703764  0.3732029253168136  0.3732354584522822
  0.1269789164611282  0.1266048799947624  0.6245153186212966
  0.1237773050761996  0.3727434868770328  0.6231567222252575
  0.1272631196777748  0.6236438450440566  0.1266606557786286
  0.1245326317414433  0.6241372999254402  0.3726698141614840
  0.8763817563039845  0.1265813030172385  0.8781558873617311
  0.6235418666210476  0.1245117300510182  0.8780136729392518
  0.3738981031390851  0.1235962652379376  0.8770656278680978
  0.1254303262734159  0.3717200311586353  0.8780247529299346
  0.1290233188439152  0.6250409239647903  0.8771594363578562
  0.1267063979358885  0.8759737200803942  0.1256481556173989
  0.1285688713857270  0.8771262016909164  0.8767147421833369
  0.0022111900834167  0.0003462677347677 -0.0002690307118882
  0.7508609913079947  0.0017601176944037 -0.0036769503242968
  0.0022781865978282  0.7498863368025187  0.4992223729579737
  0.0030282599301625  0.4966294608618620  0.4999106913492833
  0.4990004099960063  0.7482613226965825 -0.0008452870544664
  0.4978152670432209  0.0019895394093269  0.5028277484890815
  0.0038421200919043  0.7490785663245566  0.2476538071079734
  0.0044616967098614  0.4978302901310325  0.2485179021635786
  0.4956039019622199  0.0031727574888184  0.2491617012795249
  0.0020773443875278  0.2497053183813454  0.5003583898968796
  0.7499118413477053  0.2516763775905885 -0.0015473903038924
  0.2495365399295019  0.4982609191496836  0.0014851915950897
  0.2476267487720136  0.7492303835031210  0.0010298767811560
  0.2486439003722253  0.0040395811137624  0.2485447551484312
  0.2508343824598768  0.0036597565825430  0.5002703177342129
  0.2492801670160896  0.0017841919378203  0.0011972882288920
 
  0.00000000E+00  0.00000000E+00  0.00000000E+00
  0.00000000E+00  0.00000000E+00  0.00000000E+00
  0.00000000E+00  0.00000000E+00  0.00000000E+00
  0.00000000E+00  0.00000000E+00  0.00000000E+00
  0.00000000E+00  0.00000000E+00  0.00000000E+00
  0.00000000E+00  0.00000000E+00  0.00000000E+00
  0.00000000E+00  0.00000000E+00  0.00000000E+00
  0.00000000E+00  0.00000000E+00  0.00000000E+00
  0.00000000E+00  0.00000000E+00  0.00000000E+00
  0.00000000E+00  0.00000000E+00  0.00000000E+00
  0.00000000E+00  0.00000000E+00  0.00000000E+00
  0.00000000E+00  0.00000000E+00  0.00000000E+00
  0.00000000E+00  0.00000000E+00  0.00000000E+00
  0.00000000E+00  0.00000000E+00  0.00000000E+00
  0.00000000E+00  0.00000000E+00  0.00000000E+00
  0.00000000E+00  0.00000000E+00  0.00000000E+00
  0.00000000E+00  0.00000000E+00  0.00000000E+00
  0.00000000E+00  0.00000000E+00  0.00000000E+00
  0.00000000E+00  0.00000000E+00  0.00000000E+00
  0.00000000E+00  0.00000000E+00  0.00000000E+00
  0.00000000E+00  0.00000000E+00  0.00000000E+00
  0.00000000E+00  0.00000000E+00  0.00000000E+00
  0.00000000E+00  0.00000000E+00  0.00000000E+00
  0.00000000E+00  0.00000000E+00  0.00000000E+00
  0.00000000E+00  0.00000000E+00  0.00000000E+00
  0.00000000E+00  0.00000000E+00  0.00000000E+00
  0.00000000E+00  0.00000000E+00  0.00000000E+00
  0.00000000E+00  0.00000000E+00  0.00000000E+00
  0.00000000E+00  0.00000000E+00  0.00000000E+00
  0.00000000E+00  0.00000000E+00  0.00000000E+00
  0.00000000E+00  0.00000000E+00  0.00000000E+00
  0.00000000E+00  0.00000000E+00  0.00000000E+00
  0.00000000E+00  0.00000000E+00  0.00000000E+00
  0.00000000E+00  0.00000000E+00  0.00000000E+00
  0.00000000E+00  0.00000000E+00  0.00000000E+00
  0.00000000E+00  0.00000000E+00  0.00000000E+00
  0.00000000E+00  0.00000000E+00  0.00000000E+00
  0.00000000E+00  0.00000000E+00  0.00000000E+00
  0.00000000E+00  0.00000000E+00  0.00000000E+00
  0.00000000E+00  0.00000000E+00  0.00000000E+00
  0.00000000E+00  0.00000000E+00  0.00000000E+00
  0.00000000E+00  0.00000000E+00  0.00000000E+00
  0.00000000E+00  0.00000000E+00  0.00000000E+00
  0.00000000E+00  0.00000000E+00  0.00000000E+00
  0.00000000E+00  0.00000000E+00  0.00000000E+00
  0.00000000E+00  0.00000000E+00  0.00000000E+00
  0.00000000E+00  0.00000000E+00  0.00000000E+00
  0.00000000E+00  0.00000000E+00  0.00000000E+00
  0.00000000E+00  0.00000000E+00  0.00000000E+00
  0.00000000E+00  0.00000000E+00  0.00000000E+00
  0.00000000E+00  0.00000000E+00  0.00000000E+00
  0.00000000E+00  0.00000000E+00  0.00000000E+00
  0.00000000E+00  0.00000000E+00  0.00000000E+00
  0.00000000E+00  0.00000000E+00  0.00000000E+00
  0.00000000E+00  0.00000000E+00  0.00000000E+00
  0.00000000E+00  0.00000000E+00  0.00000000E+00
  0.00000000E+00  0.00000000E+00  0.00000000E+00
  0.00000000E+00  0.00000000E+00  0.00000000E+00
  0.00000000E+00  0.00000000E+00  0.00000000E+00
  0.00000000E+00  0.00000000E+00  0.00000000E+00
  0.00000000E+00  0.00000000E+00  0.00000000E+00
  0.00000000E+00  0.00000000E+00  0.00000000E+00
  0.00000000E+00  0.00000000E+00  0.00000000E+00
  0.00000000E+00  0.00000000E+00  0.00000000E+00
  0.00000000E+00  0.00000000E+00  0.00000000E+00
  0.00000000E+00  0.00000000E+00  0.00000000E+00
  0.00000000E+00  0.00000000E+00  0.00000000E+00
  0.00000000E+00  0.00000000E+00  0.00000000E+00
  0.00000000E+00  0.00000000E+00  0.00000000E+00
  0.00000000E+00  0.00000000E+00  0.00000000E+00
  0.00000000E+00  0.00000000E+00  0.00000000E+00
  0.00000000E+00  0.00000000E+00  0.00000000E+00
  0.00000000E+00  0.00000000E+00  0.00000000E+00
  0.00000000E+00  0.00000000E+00  0.00000000E+00
  0.00000000E+00  0.00000000E+00  0.00000000E+00
  0.00000000E+00  0.00000000E+00  0.00000000E+00
  0.00000000E+00  0.00000000E+00  0.00000000E+00
  0.00000000E+00  0.00000000E+00  0.00000000E+00
  0.00000000E+00  0.00000000E+00  0.00000000E+00
  0.00000000E+00  0.00000000E+00  0.00000000E+00
  0.00000000E+00  0.00000000E+00  0.00000000E+00
  0.00000000E+00  0.00000000E+00  0.00000000E+00
  0.00000000E+00  0.00000000E+00  0.00000000E+00
  0.00000000E+00  0.00000000E+00  0.00000000E+00
  0.00000000E+00  0.00000000E+00  0.00000000E+00
  0.00000000E+00  0.00000000E+00  0.00000000E+00
  0.00000000E+00  0.00000000E+00  0.00000000E+00
  0.00000000E+00  0.00000000E+00  0.00000000E+00
  0.00000000E+00  0.00000000E+00  0.00000000E+00
  0.00000000E+00  0.00000000E+00  0.00000000E+00
  0.00000000E+00  0.00000000E+00  0.00000000E+00
  0.00000000E+00  0.00000000E+00  0.00000000E+00
  0.00000000E+00  0.00000000E+00  0.00000000E+00
  0.00000000E+00  0.00000000E+00  0.00000000E+00
  0.00000000E+00  0.00000000E+00  0.00000000E+00
  0.00000000E+00  0.00000000E+00  0.00000000E+00
  0.00000000E+00  0.00000000E+00  0.00000000E+00
  0.00000000E+00  0.00000000E+00  0.00000000E+00
  0.00000000E+00  0.00000000E+00  0.00000000E+00
  0.00000000E+00  0.00000000E+00  0.00000000E+00
  0.00000000E+00  0.00000000E+00  0.00000000E+00
  0.00000000E+00  0.00000000E+00  0.00000000E+00
  0.00000000E+00  0.00000000E+00  0.00000000E+00
  0.00000000E+00  0.00000000E+00  0.00000000E+00
  0.00000000E+00  0.00000000E+00  0.00000000E+00
  0.00000000E+00  0.00000000E+00  0.00000000E+00
  0.00000000E+00  0.00000000E+00  0.00000000E+00
  0.00000000E+00  0.00000000E+00  0.00000000E+00
  0.00000000E+00  0.00000000E+00  0.00000000E+00
  0.00000000E+00  0.00000000E+00  0.00000000E+00
  0.00000000E+00  0.00000000E+00  0.00000000E+00
  0.00000000E+00  0.00000000E+00  0.00000000E+00
  0.00000000E+00  0.00000000E+00  0.00000000E+00
  0.00000000E+00  0.00000000E+00  0.00000000E+00
  0.00000000E+00  0.00000000E+00  0.00000000E+00
  0.00000000E+00  0.00000000E+00  0.00000000E+00
  0.00000000E+00  0.00000000E+00  0.00000000E+00
  0.00000000E+00  0.00000000E+00  0.00000000E+00
  0.00000000E+00  0.00000000E+00  0.00000000E+00
  0.00000000E+00  0.00000000E+00  0.00000000E+00
  0.00000000E+00  0.00000000E+00  0.00000000E+00
  0.00000000E+00  0.00000000E+00  0.00000000E+00
  0.00000000E+00  0.00000000E+00  0.00000000E+00
  0.00000000E+00  0.00000000E+00  0.00000000E+00
  0.00000000E+00  0.00000000E+00  0.00000000E+00
  0.00000000E+00  0.00000000E+00  0.00000000E+00
  0.00000000E+00  0.00000000E+00  0.00000000E+00
  0.00000000E+00  0.00000000E+00  0.00000000E+00
