#generated using str2pos                
    1.000000000000000     
    13.0477962926828468    0.0071161109668459    0.0077059412000355
     0.0071149604840997   13.0475157275974070    0.0093905881531438
     0.0077025777975099    0.0093894988093921   13.0592499797034467
   Ta   W 
    90    38
Direct
  0.1242567933026680  0.1241826016535176  0.1244124354146846
  0.5004713261533916  0.2508171484690407  0.2506744935015509
  0.7521782746063803  0.2502311074991782  0.2507348250780951
  0.6276403368706364  0.1261671625063230  0.1193467307610612
 -0.0018106037785590  0.2508262990248298  0.2499344091090417
  0.8743253833709834  0.1224787665429481  0.1196461117638797
  0.2493548982689357  0.4989189454234317  0.2532698821598725
  0.1297668470169367  0.3735498721197658  0.1280447342866355
  0.4995285052317652  0.4963023690149055  0.2536813634418107
  0.3764940522048644  0.3754231869264198  0.1233823530428670
  0.7507025192350716  0.4956017584382281  0.2492373196288744
  0.6226542511144606  0.3728694987818368  0.1197139798093808
  0.0032651967097249  0.4985583045849998  0.2512118613948729
  0.1268458620101139  0.6279332775451845  0.1260823893396119
  0.5007758211902136  0.7494097118259868  0.2503470397566572
  0.3758336244180985  0.6248659837152998  0.1243358972840596
  0.7527625515746198  0.7515640633707958  0.2518609169836457
  0.6217956289631897  0.6239840363520889  0.1223501411627554
  0.0009711568857879  0.7518131980320818  0.2555024034443900
  0.8790890763481140  0.6274240362877830  0.1244488527786145
  0.2487063704372488 -0.0001958074778641  0.2488799438739422
  0.1242820599430308  0.8739980072952019  0.1222091045770585
  0.4978027555325060  0.0028442757065633  0.2463153748305847
  0.3737574121931815  0.8707194836145900  0.1250709693750690
  0.7533202652715568  0.0008214442646527  0.2530174954497867
  0.6252431746123979  0.8760784347398504  0.1211953556442019
 -0.0008712035354016 -0.0008687890021089  0.2550357700478812
  0.8771776076532742  0.8770478976895061  0.1197322193998795
  0.2503093937784021  0.2528330014498173  0.4985101635560810
  0.1256303999855589  0.1283159997792065  0.3750510411563024
  0.4988488494370595  0.2535189557882190  0.4962570162239347
  0.3725998292229060  0.1254071624897478  0.3742396569321868
  0.6256040002463222  0.1245610113512666  0.3768303417025834
  0.4999371534321234  0.4977336772567971  0.4983362706762407
  0.7470986185122513  0.4984910132466263  0.5003523708598389
  0.8776593186057470  0.3746950293877372  0.3811781934068816
  0.4999640364690415  0.7528725593748579  0.5034542760216675
  0.3706575552225291  0.6271462251556144  0.3770402079133222
  0.7513258924461387  0.7540267408580100  0.5019483546428094
  0.6250043273399355  0.6261935683744485  0.3754591173731506
 -0.0002655157939064  0.7535770533148202  0.4981578679293212
  0.8768911411346503  0.6208690336941922  0.3775812946377627
  0.2488365986441543 -0.0012302963976596  0.5010722057285760
  0.4993438100899530 -0.0021393278318631  0.5038760206151157
  0.3722531480864172  0.8717867715872206  0.3736351373572396
  0.7525765630354077 -0.0023128276342554  0.5008491325902049
  0.6227950193718144  0.8757921831020979  0.3731416336655129
 -0.0028311971900993 -0.0024574988693737  0.4972967726897490
  0.2506698582386707  0.2514294168108932  0.7545508802942058
  0.1201957248067220  0.1269634869801918  0.6265372321404904
  0.3759057064107266  0.1281951383216257  0.6252360896660922
  0.6264691502220749  0.1299653275895071  0.6266500869111007
  0.8755978401143218  0.1289658061631422  0.6271629406374166
  0.2496888838330238  0.4994555215094796  0.7552575487187319
  0.1229088850773798  0.3758451878551708  0.6228508039930207
  0.4957517096608796  0.5004293299003324  0.7523016143254714
  0.3740275540711415  0.3761552223886910  0.6259194637675057
  0.7499018134865606  0.5015684985548809  0.7512699412715886
  0.6259943795997502  0.3712782512045759  0.6289804675682714
  0.0041114881718468  0.5010280007031133  0.7542519867022323
  0.8768122683314455  0.3712243045234893  0.6251075627487936
  0.1280677761085584  0.6247653274606658  0.6222249259265240
  0.3709895147847612  0.6265376079844129  0.6249231919500702
  0.7504605512411402  0.7528502602676482  0.7464107655630493
  0.6220714801257410  0.6245653120805984  0.6273398496169146
 -0.0003868584364270  0.7488691365718071  0.7476797084448060
  0.8780561796049502  0.6214720515217425  0.6232820375779045
  0.2540021741518061 -0.0003063539987139  0.7506439636964993
  0.1266540663795096  0.8739925537417579  0.6275426404712372
  0.4974753061842677 -0.0019959882175972  0.7501929213276102
  0.7476964236450635 -0.0043641553785757  0.7455508312929912
  0.2517314522512213  0.2498622366244505 -0.0034329816968203
  0.1196789368598666  0.1223707305608763  0.8731964537601261
  0.6269714325431691  0.1277275381116872  0.8745410537033101
  0.0019371190302874  0.2545404378592998  0.0018257056868878
  0.8740441055997501  0.1241222071490374  0.8738547151202266
  0.2495603851889516  0.5004018051383219 -0.0043474994210251
  0.7531370971714312  0.4992903031075615  0.0015578743993649
  0.6246918726030858  0.3709710792028127  0.8761132231560188
  0.0031771313879209  0.4968490788749615 -0.0003208443903361
  0.8724136224137342  0.3694997686438917  0.8723684223905074
  0.2513878661739690  0.7484553078106357 -0.0052328692841104
  0.7497712555034608  0.7486461251366110 -0.0007808089966603
  0.6208188348150878  0.6259759271878238  0.8765046522904695
  0.8763373279997096  0.6272275517029327  0.8760986352824920
  0.2546077979722311  0.0016062871484753 -0.0023419596750385
  0.1219548409337788  0.8765726279420915  0.8739328221315235
  0.4944946298545043  0.0019133722463124 -0.0027636593945686
  0.6235128142247245  0.8740208530711340  0.8769817838175025
  0.8773448557069722  0.8787119560591827  0.8777437499287187
  0.2512941844302769  0.2510604029685771  0.2496657969321476
  0.3747924357148923  0.1278263316948860  0.1243356982622642
  0.8752122907773972  0.3732308318675882  0.1247094388792069
  0.2471476491720954  0.7492882801256777  0.2509779475645560
  0.7497716637248087  0.2489868883510349  0.4977931959398764
  0.0006073051022156  0.2493601946901033  0.4980271076408108
  0.8752724138639316  0.1284104729575292  0.3781075518305916
  0.2494547365351015  0.4994736391815564  0.4981233896469172
  0.1245808608061963  0.3753369517484823  0.3779466231194664
  0.3720005893304388  0.3759345975648165  0.3745837542107968
  0.6273553539095111  0.3730082490618614  0.3762308051674424
  0.0029390007676382  0.5003519608811443  0.4993811623013876
  0.2479511397371144  0.7509420168819732  0.5001322079469336
  0.1272191605715347  0.6240382873634834  0.3776407615962352
  0.1278985454796003  0.8731649886285708  0.3753283432098548
  0.8750124215568228  0.8748874378585567  0.3746720332962763
  0.4969429184721887  0.2502165339304403  0.7521624617672639
  0.7498490059333893  0.2486560460647757  0.7501217274507209
  0.0016486904840534  0.2515525265562693  0.7515534612625546
  0.2512376334815835  0.7497763421866138  0.7517725788364200
  0.4970437535509515  0.7520715718618365  0.7495722504932245
  0.3723046991691945  0.8719637158554490  0.6260730501647334
  0.6226269317739640  0.8747733401431614  0.6270330200270130
 -0.0017847199124168 -0.0013452770357911  0.7469887936325685
  0.8770475981173161  0.8767331263062818  0.6268356448220138
  0.4964965028118583  0.2481803959850033 -0.0007774059606859
  0.3771769915303571  0.1271245204310778  0.8737621479429307
  0.7516016752095345  0.2509393114633731  0.0011628136861379
  0.1245179421626124  0.3733878978364478  0.8741956516069945
  0.4972276922870071  0.4991249764894909 -0.0017681884491940
  0.3791810537169146  0.3749504543170284  0.8765149156923203
  0.1260605731680860  0.6282703938833796  0.8746214818314302
  0.4966643146547194  0.7502028146892206 -0.0031301585357748
  0.3765136993149194  0.6264220902916207  0.8745409210776520
  0.0030271226027668  0.7480062897429122 -0.0012806384672651
  0.3750727938302067  0.8714792777023843  0.8731881983757864
  0.7484053724392049 -0.0000425129416250 -0.0020402095396272
  0.0013738637926465  0.0015538838753014 -0.0000657077023442
 
  0.00000000E+00  0.00000000E+00  0.00000000E+00
  0.00000000E+00  0.00000000E+00  0.00000000E+00
  0.00000000E+00  0.00000000E+00  0.00000000E+00
  0.00000000E+00  0.00000000E+00  0.00000000E+00
  0.00000000E+00  0.00000000E+00  0.00000000E+00
  0.00000000E+00  0.00000000E+00  0.00000000E+00
  0.00000000E+00  0.00000000E+00  0.00000000E+00
  0.00000000E+00  0.00000000E+00  0.00000000E+00
  0.00000000E+00  0.00000000E+00  0.00000000E+00
  0.00000000E+00  0.00000000E+00  0.00000000E+00
  0.00000000E+00  0.00000000E+00  0.00000000E+00
  0.00000000E+00  0.00000000E+00  0.00000000E+00
  0.00000000E+00  0.00000000E+00  0.00000000E+00
  0.00000000E+00  0.00000000E+00  0.00000000E+00
  0.00000000E+00  0.00000000E+00  0.00000000E+00
  0.00000000E+00  0.00000000E+00  0.00000000E+00
  0.00000000E+00  0.00000000E+00  0.00000000E+00
  0.00000000E+00  0.00000000E+00  0.00000000E+00
  0.00000000E+00  0.00000000E+00  0.00000000E+00
  0.00000000E+00  0.00000000E+00  0.00000000E+00
  0.00000000E+00  0.00000000E+00  0.00000000E+00
  0.00000000E+00  0.00000000E+00  0.00000000E+00
  0.00000000E+00  0.00000000E+00  0.00000000E+00
  0.00000000E+00  0.00000000E+00  0.00000000E+00
  0.00000000E+00  0.00000000E+00  0.00000000E+00
  0.00000000E+00  0.00000000E+00  0.00000000E+00
  0.00000000E+00  0.00000000E+00  0.00000000E+00
  0.00000000E+00  0.00000000E+00  0.00000000E+00
  0.00000000E+00  0.00000000E+00  0.00000000E+00
  0.00000000E+00  0.00000000E+00  0.00000000E+00
  0.00000000E+00  0.00000000E+00  0.00000000E+00
  0.00000000E+00  0.00000000E+00  0.00000000E+00
  0.00000000E+00  0.00000000E+00  0.00000000E+00
  0.00000000E+00  0.00000000E+00  0.00000000E+00
  0.00000000E+00  0.00000000E+00  0.00000000E+00
  0.00000000E+00  0.00000000E+00  0.00000000E+00
  0.00000000E+00  0.00000000E+00  0.00000000E+00
  0.00000000E+00  0.00000000E+00  0.00000000E+00
  0.00000000E+00  0.00000000E+00  0.00000000E+00
  0.00000000E+00  0.00000000E+00  0.00000000E+00
  0.00000000E+00  0.00000000E+00  0.00000000E+00
  0.00000000E+00  0.00000000E+00  0.00000000E+00
  0.00000000E+00  0.00000000E+00  0.00000000E+00
  0.00000000E+00  0.00000000E+00  0.00000000E+00
  0.00000000E+00  0.00000000E+00  0.00000000E+00
  0.00000000E+00  0.00000000E+00  0.00000000E+00
  0.00000000E+00  0.00000000E+00  0.00000000E+00
  0.00000000E+00  0.00000000E+00  0.00000000E+00
  0.00000000E+00  0.00000000E+00  0.00000000E+00
  0.00000000E+00  0.00000000E+00  0.00000000E+00
  0.00000000E+00  0.00000000E+00  0.00000000E+00
  0.00000000E+00  0.00000000E+00  0.00000000E+00
  0.00000000E+00  0.00000000E+00  0.00000000E+00
  0.00000000E+00  0.00000000E+00  0.00000000E+00
  0.00000000E+00  0.00000000E+00  0.00000000E+00
  0.00000000E+00  0.00000000E+00  0.00000000E+00
  0.00000000E+00  0.00000000E+00  0.00000000E+00
  0.00000000E+00  0.00000000E+00  0.00000000E+00
  0.00000000E+00  0.00000000E+00  0.00000000E+00
  0.00000000E+00  0.00000000E+00  0.00000000E+00
  0.00000000E+00  0.00000000E+00  0.00000000E+00
  0.00000000E+00  0.00000000E+00  0.00000000E+00
  0.00000000E+00  0.00000000E+00  0.00000000E+00
  0.00000000E+00  0.00000000E+00  0.00000000E+00
  0.00000000E+00  0.00000000E+00  0.00000000E+00
  0.00000000E+00  0.00000000E+00  0.00000000E+00
  0.00000000E+00  0.00000000E+00  0.00000000E+00
  0.00000000E+00  0.00000000E+00  0.00000000E+00
  0.00000000E+00  0.00000000E+00  0.00000000E+00
  0.00000000E+00  0.00000000E+00  0.00000000E+00
  0.00000000E+00  0.00000000E+00  0.00000000E+00
  0.00000000E+00  0.00000000E+00  0.00000000E+00
  0.00000000E+00  0.00000000E+00  0.00000000E+00
  0.00000000E+00  0.00000000E+00  0.00000000E+00
  0.00000000E+00  0.00000000E+00  0.00000000E+00
  0.00000000E+00  0.00000000E+00  0.00000000E+00
  0.00000000E+00  0.00000000E+00  0.00000000E+00
  0.00000000E+00  0.00000000E+00  0.00000000E+00
  0.00000000E+00  0.00000000E+00  0.00000000E+00
  0.00000000E+00  0.00000000E+00  0.00000000E+00
  0.00000000E+00  0.00000000E+00  0.00000000E+00
  0.00000000E+00  0.00000000E+00  0.00000000E+00
  0.00000000E+00  0.00000000E+00  0.00000000E+00
  0.00000000E+00  0.00000000E+00  0.00000000E+00
  0.00000000E+00  0.00000000E+00  0.00000000E+00
  0.00000000E+00  0.00000000E+00  0.00000000E+00
  0.00000000E+00  0.00000000E+00  0.00000000E+00
  0.00000000E+00  0.00000000E+00  0.00000000E+00
  0.00000000E+00  0.00000000E+00  0.00000000E+00
  0.00000000E+00  0.00000000E+00  0.00000000E+00
  0.00000000E+00  0.00000000E+00  0.00000000E+00
  0.00000000E+00  0.00000000E+00  0.00000000E+00
  0.00000000E+00  0.00000000E+00  0.00000000E+00
  0.00000000E+00  0.00000000E+00  0.00000000E+00
  0.00000000E+00  0.00000000E+00  0.00000000E+00
  0.00000000E+00  0.00000000E+00  0.00000000E+00
  0.00000000E+00  0.00000000E+00  0.00000000E+00
  0.00000000E+00  0.00000000E+00  0.00000000E+00
  0.00000000E+00  0.00000000E+00  0.00000000E+00
  0.00000000E+00  0.00000000E+00  0.00000000E+00
  0.00000000E+00  0.00000000E+00  0.00000000E+00
  0.00000000E+00  0.00000000E+00  0.00000000E+00
  0.00000000E+00  0.00000000E+00  0.00000000E+00
  0.00000000E+00  0.00000000E+00  0.00000000E+00
  0.00000000E+00  0.00000000E+00  0.00000000E+00
  0.00000000E+00  0.00000000E+00  0.00000000E+00
  0.00000000E+00  0.00000000E+00  0.00000000E+00
  0.00000000E+00  0.00000000E+00  0.00000000E+00
  0.00000000E+00  0.00000000E+00  0.00000000E+00
  0.00000000E+00  0.00000000E+00  0.00000000E+00
  0.00000000E+00  0.00000000E+00  0.00000000E+00
  0.00000000E+00  0.00000000E+00  0.00000000E+00
  0.00000000E+00  0.00000000E+00  0.00000000E+00
  0.00000000E+00  0.00000000E+00  0.00000000E+00
  0.00000000E+00  0.00000000E+00  0.00000000E+00
  0.00000000E+00  0.00000000E+00  0.00000000E+00
  0.00000000E+00  0.00000000E+00  0.00000000E+00
  0.00000000E+00  0.00000000E+00  0.00000000E+00
  0.00000000E+00  0.00000000E+00  0.00000000E+00
  0.00000000E+00  0.00000000E+00  0.00000000E+00
  0.00000000E+00  0.00000000E+00  0.00000000E+00
  0.00000000E+00  0.00000000E+00  0.00000000E+00
  0.00000000E+00  0.00000000E+00  0.00000000E+00
  0.00000000E+00  0.00000000E+00  0.00000000E+00
  0.00000000E+00  0.00000000E+00  0.00000000E+00
  0.00000000E+00  0.00000000E+00  0.00000000E+00
  0.00000000E+00  0.00000000E+00  0.00000000E+00
  0.00000000E+00  0.00000000E+00  0.00000000E+00
