#generated using str2pos                
    1.000000000000000     
    13.1084644719894019   -0.0056162769216873   -0.0014011949858792
    -0.0056162578797516   13.1120703687241811    0.0080995121006486
    -0.0014016844992551    0.0081007851533423   13.1080747810777485
   Ta   W 
   102    26
Direct
  0.2521044940419050  0.2472305683525134  0.2510663996686626
  0.1224492773659563  0.1226780325280615  0.1262754973637760
  0.5007087572232609  0.2469664603125843  0.2521739216803851
  0.3774617341134250  0.1232670080848725  0.1255543303915826
  0.7462705844178218  0.2483832242064781  0.2496499795943475
  0.0000119323935365  0.2525692182938519  0.2498527910313894
  0.8746893363637286  0.1213428192789833  0.1278081512645822
  0.1254085811963166  0.3779515314011943  0.1252576206447415
  0.5020554060075217  0.5039074225519184  0.2483824584770164
  0.3749277840086079  0.3753400608425966  0.1274667258051676
  0.7462383282150800  0.5024488946203817  0.2497874624713109
  0.6265117664900589  0.3759120837784054  0.1229986099562784
 -0.0010600170302763  0.4992159859153353  0.2510537529061103
  0.8737190072643208  0.3778619423902486  0.1230616481521322
  0.2526103598983345  0.7494290004967393  0.2476001791545731
  0.1236155122155522  0.6225920506607361  0.1238236757100271
  0.5015657928572033  0.7453107839891641  0.2482845777972346
  0.7464260562726542  0.7457445214500222  0.2480993658677244
  0.0001304847391285  0.7471059504278825  0.2490621955518535
  0.8755355280992053  0.6223717938484258  0.1222935625989198
  0.2531664396653449  0.0019523759341354  0.2525313675858454
  0.1227284842652765  0.8760592622200907  0.1262577777927414
  0.3797307227285557  0.8775797140328258  0.1276828774816937
  0.6266458884545447  0.8775938800004794  0.1272464786429060
  0.8736196584493356  0.8770009847854270  0.1285746360137242
  0.1236752968696705  0.1251838052393150  0.3752661205766983
  0.5010094684334910  0.2464279670857719  0.4976917567098882
  0.7455552061340988  0.2462957176445502  0.5003205222455452
 -0.0014848330215560  0.2503411115108812  0.4998680953624423
  0.8745155741783383  0.1207284070285138  0.3713284730463587
  0.1297115521004461  0.3758585126651398  0.3774984628207055
  0.5022602865617927  0.5017939688189859  0.4972575595671205
  0.3721666094836609  0.3767195851732000  0.3769184679355307
  0.7470756272191769  0.5003786708449328  0.4983517780879863
  0.6235790813085199  0.3741626216936217  0.3747445490706435
 -0.0019654082497298  0.4996712653850793  0.5007063645785187
  0.8727752905483912  0.3738578224205835  0.3746091217721986
  0.2510159936973771  0.7512427422005216  0.4985079232060380
  0.1283178032555982  0.6214158731284439  0.3753701150030220
  0.5014952579725895  0.7504329480769717  0.4998986391239032
  0.3717156398896438  0.6223537806049103  0.3768691337931848
  0.0015104687315446  0.7493385063912457  0.5003281875686520
  0.8741955130796639  0.6273537746541167  0.3763324817596839
  0.2531975907110584  0.0006374905486888  0.4982389285793676
  0.1232877041026932  0.8762773884489988  0.3726705814100731
  0.5018889028636425  0.0022935310619577  0.5006898595817593
  0.3791181219531430  0.8753237718159493  0.3732499555061406
  0.7447688860884207  0.0016833581000919  0.5020635497401001
  0.6263835977171386  0.8764467114063078  0.3720987272158446
  0.0004204018292540 -0.0001914879517445  0.5019695356620300
  0.8724918664898274  0.8758742884871541  0.3733380737347520
  0.2485510827311586  0.2497022036224101  0.7513213237164202
  0.1269450698669308  0.1276757205026264  0.6235518840625138
  0.3745450305852585  0.1291336126606625  0.6256967248876021
  0.7505766407175014  0.2506944280507377  0.7495033613516570
 -0.0018608946202055  0.2530739855437726  0.7515717183678912
  0.8750120706828314  0.1243225128907696  0.6247756215001796
  0.1295466081025161  0.3775165265874445  0.6243615368123218
  0.3746603441410999  0.3767241832172130  0.6259759092943745
  0.7518252971056210  0.5019016152689764  0.7543808207939872
  0.6202859651956188  0.3769154808051426  0.6289741714456029
 -0.0048381711112560  0.5006151202720770  0.7518239161246032
  0.8726574903000960  0.3752617994115249  0.6243410308742559
  0.1291798166863880  0.6230646010578843  0.6272517069459695
  0.5028009066812537  0.7528803609276108  0.7511151534389503
  0.3736500162269530  0.6221044083851972  0.6277489492127906
  0.7492741997641910  0.7499911624323892  0.7537640645687818
  0.6240529288222025  0.6243105289014712  0.6260762377419777
 -0.0041529116506389  0.7485793726589604  0.7526991168413298
  0.8714259692798441  0.6275077545473902  0.6226393353166435
  0.2525606344934431  0.0000743541571185  0.7510744801593733
  0.1274582546209961  0.8717077933265865  0.6267661998199097
  0.5011908327964371 -0.0024617808618444  0.7478264619078185
  0.3739724567540312  0.8729006505241755  0.6248610115144754
  0.7478212359155736 -0.0019016642906865  0.7476515679333139
 -0.0016103257428124 -0.0027249447717887  0.7508196978978890
  0.8733887807187178  0.8727962769398857  0.6219743919781557
  0.2501332698809610  0.2511615329357156  0.0008319762809611
  0.1249243338860404  0.1252836421475056  0.8752693896300144
  0.5018373238294587  0.2498568619050748  0.0033524034651988
  0.3784942878205678  0.1288316098726982  0.8733218823821477
  0.7498772379461935  0.2502488311951770 -0.0000513521108284
  0.6236144649296433  0.1271583433127386  0.8735161460419039
 -0.0017047551870565  0.2519667033547594 -0.0011888013795641
  0.8731512834461692  0.1250175903526350  0.8751378482725021
  0.2535944256972351  0.5021100586736497  0.0020423593174141
  0.1263114243447239  0.3798369960569812  0.8750815308961428
  0.5009998908890267  0.5048564346520232  0.0030674764610641
  0.3771073733720145  0.3775624309031383  0.8712616480304864
  0.6220530453675867  0.3757323199810079  0.8740414043548412
  0.2545594019398583  0.7495968884188910  0.0017704786813007
  0.1276413694731670  0.6236973713882906  0.8735271399665332
  0.5013543703850344  0.7476240058804752  0.0000799513570801
  0.3741590132938546  0.6228891797723103  0.8694062780963205
  0.7498862722162107  0.7481521863967366 -0.0022757712988222
 -0.0032729663880228  0.7497641252330212 -0.0034950645539642
  0.2529947070875901 -0.0023410491469508 -0.0017410005743781
  0.1274607559841562  0.8711658523937784  0.8733840030870931
  0.5009620467864131 -0.0002716164348184 -0.0006351617798694
  0.7496281849107833 -0.0002556202256496 -0.0013732803188253
  0.6248787024474877  0.8760708506315399  0.8769317598712867
 -0.0020809003814722 -0.0032589610166870 -0.0039781898364967
  0.6260440525426020  0.1225788898153163  0.1263003933831602
  0.2520606959667892  0.5002743590137800  0.2480714639905497
  0.3746439283483270  0.6245250200029276  0.1257331998902734
  0.6271426122493978  0.6247282412178883  0.1229213157731714
  0.5013790221627883  0.0027143709494215  0.2517627627354525
  0.7468883156668963  0.0013542308605132  0.2501257307072888
  0.0001490704063561 -0.0005741352816602  0.2499891604129489
  0.2522195116883769  0.2486194108588620  0.4992834444893319
  0.3756850998963891  0.1251606048529896  0.3759573935756390
  0.6250230869190649  0.1217551433686184  0.3728897112662435
  0.2510248700976624  0.5001014427314402  0.5006174268238328
  0.7466752941459861  0.7509851191164767  0.4997754467397827
  0.6252986032942706  0.6272069514476150  0.3768725774336167
  0.5010424315280174  0.2492080901518663  0.7481147078205719
  0.6226458926733074  0.1269921961954603  0.6266054757168029
  0.2495873009959706  0.4996342420556338  0.7509245099643299
  0.5022303781657883  0.5025018364034025  0.7515943729796175
  0.2520677062193443  0.7511135739790626  0.7515633956489824
  0.6255380087782589  0.8727292062151565  0.6232540460037179
  0.7488698846086939  0.5025450005159915 -0.0021801848279819
 -0.0021270071364056  0.5008194578956272 -0.0025573854537029
  0.8740344017175201  0.3770731046315995  0.8776173702596773
  0.6242285941929075  0.6230399985000968  0.8745095294758616
  0.8747461961057292  0.6229456262149390  0.8773554959468554
  0.3757235364408026  0.8728422075720005  0.8741805277639489
  0.8737412196194844  0.8745854764256906  0.8748536553687787
 
  0.00000000E+00  0.00000000E+00  0.00000000E+00
  0.00000000E+00  0.00000000E+00  0.00000000E+00
  0.00000000E+00  0.00000000E+00  0.00000000E+00
  0.00000000E+00  0.00000000E+00  0.00000000E+00
  0.00000000E+00  0.00000000E+00  0.00000000E+00
  0.00000000E+00  0.00000000E+00  0.00000000E+00
  0.00000000E+00  0.00000000E+00  0.00000000E+00
  0.00000000E+00  0.00000000E+00  0.00000000E+00
  0.00000000E+00  0.00000000E+00  0.00000000E+00
  0.00000000E+00  0.00000000E+00  0.00000000E+00
  0.00000000E+00  0.00000000E+00  0.00000000E+00
  0.00000000E+00  0.00000000E+00  0.00000000E+00
  0.00000000E+00  0.00000000E+00  0.00000000E+00
  0.00000000E+00  0.00000000E+00  0.00000000E+00
  0.00000000E+00  0.00000000E+00  0.00000000E+00
  0.00000000E+00  0.00000000E+00  0.00000000E+00
  0.00000000E+00  0.00000000E+00  0.00000000E+00
  0.00000000E+00  0.00000000E+00  0.00000000E+00
  0.00000000E+00  0.00000000E+00  0.00000000E+00
  0.00000000E+00  0.00000000E+00  0.00000000E+00
  0.00000000E+00  0.00000000E+00  0.00000000E+00
  0.00000000E+00  0.00000000E+00  0.00000000E+00
  0.00000000E+00  0.00000000E+00  0.00000000E+00
  0.00000000E+00  0.00000000E+00  0.00000000E+00
  0.00000000E+00  0.00000000E+00  0.00000000E+00
  0.00000000E+00  0.00000000E+00  0.00000000E+00
  0.00000000E+00  0.00000000E+00  0.00000000E+00
  0.00000000E+00  0.00000000E+00  0.00000000E+00
  0.00000000E+00  0.00000000E+00  0.00000000E+00
  0.00000000E+00  0.00000000E+00  0.00000000E+00
  0.00000000E+00  0.00000000E+00  0.00000000E+00
  0.00000000E+00  0.00000000E+00  0.00000000E+00
  0.00000000E+00  0.00000000E+00  0.00000000E+00
  0.00000000E+00  0.00000000E+00  0.00000000E+00
  0.00000000E+00  0.00000000E+00  0.00000000E+00
  0.00000000E+00  0.00000000E+00  0.00000000E+00
  0.00000000E+00  0.00000000E+00  0.00000000E+00
  0.00000000E+00  0.00000000E+00  0.00000000E+00
  0.00000000E+00  0.00000000E+00  0.00000000E+00
  0.00000000E+00  0.00000000E+00  0.00000000E+00
  0.00000000E+00  0.00000000E+00  0.00000000E+00
  0.00000000E+00  0.00000000E+00  0.00000000E+00
  0.00000000E+00  0.00000000E+00  0.00000000E+00
  0.00000000E+00  0.00000000E+00  0.00000000E+00
  0.00000000E+00  0.00000000E+00  0.00000000E+00
  0.00000000E+00  0.00000000E+00  0.00000000E+00
  0.00000000E+00  0.00000000E+00  0.00000000E+00
  0.00000000E+00  0.00000000E+00  0.00000000E+00
  0.00000000E+00  0.00000000E+00  0.00000000E+00
  0.00000000E+00  0.00000000E+00  0.00000000E+00
  0.00000000E+00  0.00000000E+00  0.00000000E+00
  0.00000000E+00  0.00000000E+00  0.00000000E+00
  0.00000000E+00  0.00000000E+00  0.00000000E+00
  0.00000000E+00  0.00000000E+00  0.00000000E+00
  0.00000000E+00  0.00000000E+00  0.00000000E+00
  0.00000000E+00  0.00000000E+00  0.00000000E+00
  0.00000000E+00  0.00000000E+00  0.00000000E+00
  0.00000000E+00  0.00000000E+00  0.00000000E+00
  0.00000000E+00  0.00000000E+00  0.00000000E+00
  0.00000000E+00  0.00000000E+00  0.00000000E+00
  0.00000000E+00  0.00000000E+00  0.00000000E+00
  0.00000000E+00  0.00000000E+00  0.00000000E+00
  0.00000000E+00  0.00000000E+00  0.00000000E+00
  0.00000000E+00  0.00000000E+00  0.00000000E+00
  0.00000000E+00  0.00000000E+00  0.00000000E+00
  0.00000000E+00  0.00000000E+00  0.00000000E+00
  0.00000000E+00  0.00000000E+00  0.00000000E+00
  0.00000000E+00  0.00000000E+00  0.00000000E+00
  0.00000000E+00  0.00000000E+00  0.00000000E+00
  0.00000000E+00  0.00000000E+00  0.00000000E+00
  0.00000000E+00  0.00000000E+00  0.00000000E+00
  0.00000000E+00  0.00000000E+00  0.00000000E+00
  0.00000000E+00  0.00000000E+00  0.00000000E+00
  0.00000000E+00  0.00000000E+00  0.00000000E+00
  0.00000000E+00  0.00000000E+00  0.00000000E+00
  0.00000000E+00  0.00000000E+00  0.00000000E+00
  0.00000000E+00  0.00000000E+00  0.00000000E+00
  0.00000000E+00  0.00000000E+00  0.00000000E+00
  0.00000000E+00  0.00000000E+00  0.00000000E+00
  0.00000000E+00  0.00000000E+00  0.00000000E+00
  0.00000000E+00  0.00000000E+00  0.00000000E+00
  0.00000000E+00  0.00000000E+00  0.00000000E+00
  0.00000000E+00  0.00000000E+00  0.00000000E+00
  0.00000000E+00  0.00000000E+00  0.00000000E+00
  0.00000000E+00  0.00000000E+00  0.00000000E+00
  0.00000000E+00  0.00000000E+00  0.00000000E+00
  0.00000000E+00  0.00000000E+00  0.00000000E+00
  0.00000000E+00  0.00000000E+00  0.00000000E+00
  0.00000000E+00  0.00000000E+00  0.00000000E+00
  0.00000000E+00  0.00000000E+00  0.00000000E+00
  0.00000000E+00  0.00000000E+00  0.00000000E+00
  0.00000000E+00  0.00000000E+00  0.00000000E+00
  0.00000000E+00  0.00000000E+00  0.00000000E+00
  0.00000000E+00  0.00000000E+00  0.00000000E+00
  0.00000000E+00  0.00000000E+00  0.00000000E+00
  0.00000000E+00  0.00000000E+00  0.00000000E+00
  0.00000000E+00  0.00000000E+00  0.00000000E+00
  0.00000000E+00  0.00000000E+00  0.00000000E+00
  0.00000000E+00  0.00000000E+00  0.00000000E+00
  0.00000000E+00  0.00000000E+00  0.00000000E+00
  0.00000000E+00  0.00000000E+00  0.00000000E+00
  0.00000000E+00  0.00000000E+00  0.00000000E+00
  0.00000000E+00  0.00000000E+00  0.00000000E+00
  0.00000000E+00  0.00000000E+00  0.00000000E+00
  0.00000000E+00  0.00000000E+00  0.00000000E+00
  0.00000000E+00  0.00000000E+00  0.00000000E+00
  0.00000000E+00  0.00000000E+00  0.00000000E+00
  0.00000000E+00  0.00000000E+00  0.00000000E+00
  0.00000000E+00  0.00000000E+00  0.00000000E+00
  0.00000000E+00  0.00000000E+00  0.00000000E+00
  0.00000000E+00  0.00000000E+00  0.00000000E+00
  0.00000000E+00  0.00000000E+00  0.00000000E+00
  0.00000000E+00  0.00000000E+00  0.00000000E+00
  0.00000000E+00  0.00000000E+00  0.00000000E+00
  0.00000000E+00  0.00000000E+00  0.00000000E+00
  0.00000000E+00  0.00000000E+00  0.00000000E+00
  0.00000000E+00  0.00000000E+00  0.00000000E+00
  0.00000000E+00  0.00000000E+00  0.00000000E+00
  0.00000000E+00  0.00000000E+00  0.00000000E+00
  0.00000000E+00  0.00000000E+00  0.00000000E+00
  0.00000000E+00  0.00000000E+00  0.00000000E+00
  0.00000000E+00  0.00000000E+00  0.00000000E+00
  0.00000000E+00  0.00000000E+00  0.00000000E+00
  0.00000000E+00  0.00000000E+00  0.00000000E+00
  0.00000000E+00  0.00000000E+00  0.00000000E+00
  0.00000000E+00  0.00000000E+00  0.00000000E+00
  0.00000000E+00  0.00000000E+00  0.00000000E+00
  0.00000000E+00  0.00000000E+00  0.00000000E+00
