#generated using str2pos                
    1.000000000000000     
    12.9129958052224687   -0.0036993925229298   -0.0217651465213189
    -0.0037069638656089   12.8960949181062556   -0.0051511463788693
    -0.0217732998124521   -0.0051519915641239   12.9028929983548917
   Ta   W 
    58    70
Direct
  0.1278513221293893  0.1274167500311007  0.1231635693584191
  0.3756587226750097  0.1253159056630214  0.1244844087489132
  0.7506084442063592  0.2490520581281619  0.2493922225348682
 -0.0022023715848651  0.2472622678292099  0.2529437495955815
  0.1271039928643159  0.3751369471790389  0.1260027606305134
  0.5029378281172727  0.4981942008374943  0.2488751335349502
  0.3725528823054799  0.3725094553752112  0.1248486907778424
  0.7503509959130401  0.4999730815795747  0.2506495092939194
  0.8787870924014162  0.3756297643902372  0.1252007868307713
  0.2467667072452737  0.7505625473485219  0.2505563811424859
  0.3731901041984990  0.6259088091810877  0.1246684043069035
  0.7520011191697162  0.7501895321851918  0.2475979932593282
  0.2474643355405202 -0.0023651677456948  0.2523271822349845
  0.3767748332463627  0.8751693045223584  0.1234577750683381
  0.7523442554624534 -0.0007115482048417  0.2485938941366975
 -0.0021397243754556 -0.0007154204296554  0.2496049253047167
  0.5003889271538141  0.2519552176414326  0.4991140255608099
  0.3751910902165034  0.1243661918895743  0.3748340912331092
  0.6237433481485875  0.1225215287743942  0.3757836894565393
  0.1260160154776456  0.3756391429189864  0.3763274386032948
  0.7541654382379115  0.4994946975220512  0.4987504846818070
  0.3750718132060978  0.6252632350654471  0.3770904681333551
  0.6230514504013760  0.6284545272115181  0.3779118245559434
 -0.0014483392369907  0.7497767100229612  0.4996703290398936
  0.1240459970344157  0.8743950734782825  0.3777739362406280
  0.6227955312922775  0.8751701092067374  0.3769712189787113
  0.1242073336253618  0.1252574510577908  0.6254411099673907
  0.5016590689769400  0.2510226488124194  0.7504668902936473
  0.3726252799510477  0.1231614969866217  0.6249415791607262
  0.6279860505374166  0.1229212306118324  0.6251323036170733
  0.8757554522503349  0.1251644082032502  0.6250021860138095
  0.1248075431740256  0.3749153555524964  0.6243857897468956
  0.3731130603288489  0.3777537866787811  0.6254565139982514
  0.6274166887060475  0.3769585251002433  0.6260253182273384
  0.1272415920532029  0.6229710478092833  0.6243169415885752
  0.5010481150674158  0.7516440872677119  0.7512493376600520
  0.3741895400998522  0.6249487117724670  0.6241002024952450
  0.6250740675844979  0.6256235838859187  0.6246840601596652
 -0.0014344613809030  0.7505238827803418  0.7445068850560325
  0.6258672327135503  0.8757018307244777  0.6236465151657823
  0.1255375865413283  0.1257131308946707  0.8736033339904267
  0.3743406166976518  0.1239104362857510  0.8763210865604808
  0.7492856889040502  0.2511891541704294  0.0016369090117338
  0.6252499630955057  0.1227895128355232  0.8749444546807698
  0.8742693760061073  0.1246655866146608  0.8713260316096223
  0.1257449878820012  0.3745095691303044  0.8736770719493917
  0.5051008166743758  0.5002924446904351  0.0014085201005193
  0.3726579187330271  0.3753077381896965  0.8756823705973125
  0.7485341057744246  0.5004958209252874 -0.0001143655810617
 -0.0017627198106001  0.5017731173845150  0.0006459014240817
  0.1263419969250168  0.6252958090755719  0.8742563329237035
  0.3729357343976389  0.6253534007018293  0.8748432035909417
  0.7483389454696163  0.7498296758211502  0.0020771385832830
  0.8749407421006102  0.6258650811331367  0.8722247056575202
  0.1261378934977407  0.8752085121871970  0.8740086860531912
  0.3734037983264265  0.8757287253862682  0.8763098349242675
 -0.0018843623864743 -0.0013504583665122  0.0038675113148746
  0.8736685180281427  0.8758692291906748  0.8729726600840408
  0.2499099993309939  0.2489498948602768  0.2521688505434075
  0.5024349126564442  0.2516539601527754  0.2510722689370964
  0.6217808043589858  0.1231789501955379  0.1241146560227318
  0.8747260193181554  0.1249276749838626  0.1231392553993869
  0.2492765443281959  0.5015757914220680  0.2517985921254110
  0.6236844967587896  0.3725347946998719  0.1254431947451204
 -0.0006475570520006  0.5024209454844848  0.2508651020247097
  0.1249128629353398  0.6245304158335391  0.1251254544792943
  0.5003490714550161  0.7502918472911995  0.2494463076650300
  0.6236324975217228  0.6274489792482849  0.1256043665849658
 -0.0010625792926266  0.7490072174321698  0.2507577804375968
  0.8783917419222790  0.6258066888596834  0.1259279087759271
  0.1247621872960263  0.8725927818695310  0.1238177315150370
  0.5009444407655094 -0.0006921039154281  0.2489026234926421
  0.6221022054471249  0.8762700959619496  0.1246792030883090
  0.8748538677886621  0.8734678451049118  0.1240168689830409
  0.2500050857596413  0.2496532038609394  0.4979907736449103
  0.1255374932623168  0.1259425685108058  0.3784010663414332
  0.7519905168222214  0.2520174947035044  0.4976966572693978
 -0.0015587633099585  0.2498656483372280  0.4986406661409113
  0.8745648365514893  0.1244895671952269  0.3795380655961462
  0.2494258183475266  0.5004113904605655  0.4979194169247319
  0.5009340382584564  0.4982748191029506  0.4975676025151783
  0.3727133923582187  0.3751465503536081  0.3746537433018877
  0.6250342918620690  0.3737739784208011  0.3764513347610629
 -0.0020382397559031  0.5010847675006954  0.4983507806517636
  0.8782261706987763  0.3748765266513620  0.3772234408969364
  0.2487287464917574  0.7516615573934893  0.4991248809985063
  0.1251955479813173  0.6229100305462479  0.3749739338576782
  0.4978350020353187  0.7519715885784031  0.5012191592219942
  0.7538323339216745  0.7498423736795261  0.4992109397761698
  0.8770140624747473  0.6250810681292461  0.3749303358118588
  0.2488720451649012 -0.0019564209560623  0.5000085942740482
  0.4976663210185018 -0.0012724239977162  0.5000804475382802
  0.3757974654899172  0.8746733000221458  0.3770855362007240
  0.7527813091596106 -0.0008503574310918  0.4987798522992604
 -0.0008735335983546 -0.0013734514013548  0.4981934398373459
  0.8746577101768959  0.8744395846458981  0.3767835622236321
  0.2500535020495402  0.2493932132017100  0.7497394925826680
  0.7508813743430500  0.2529433529623837  0.7512567870177375
 -0.0020423645969618  0.2520631935658459  0.7486784641091284
  0.2496327617194246  0.5006091661783946  0.7494478491405813
  0.5031306195240617  0.5009827297107854  0.7533828163677965
  0.7516162718453123  0.5001556643476639  0.7498452399159720
 -0.0028253699076503  0.4997998264562790  0.7484243088608113
  0.8764809234236594  0.3738269648307360  0.6257087331736852
  0.2498218695854564  0.7522557025741128  0.7479917451489020
  0.7497846787819821  0.7498126038827677  0.7502749242895624
  0.8747747048806623  0.6241056053081544  0.6245926227721290
  0.2498530976083903 -0.0018436488218566  0.7474004206787814
  0.1262169888623701  0.8766172349010017  0.6246780307342399
  0.4998225463660136 -0.0022630781671176  0.7506494318420639
  0.3744578138347837  0.8756865673852992  0.6249673757413186
  0.7499279926429598 -0.0018033936765424  0.7493070973467744
 -0.0001224712087893 -0.0016815628208779  0.7475869014841797
  0.8731033323435007  0.8772669210339937  0.6244719742112295
  0.2502861033436780  0.2499816834130828  0.0002117062510580
  0.5038965241869406  0.2507836968970842  0.0007219638625726
 -0.0027863336788899  0.2499082569279319 -0.0002497271590952
  0.2490105899760062  0.5015744055608788  0.0015553213279372
  0.6258028139170109  0.3748017917213545  0.8731585645344609
  0.8764086289501414  0.3744926454209987  0.8718969406315613
  0.2478027929474991  0.7498655262106679  0.0026992446232276
  0.5035596678613156  0.7497890480011453 -0.0004402306000270
  0.6252345909988906  0.6260759266975605  0.8726367408571493
 -0.0011587040173190  0.7501461676635561  0.0028854554176441
  0.2486454152379038 -0.0013189167671185  0.0012394875021221
  0.5029586248880322 -0.0011263559761786  0.0009314166389795
  0.7493171574090407 -0.0010073534715182  0.0023292431838082
  0.6245907071815681  0.8768978159610582  0.8746733487385709
 
  0.00000000E+00  0.00000000E+00  0.00000000E+00
  0.00000000E+00  0.00000000E+00  0.00000000E+00
  0.00000000E+00  0.00000000E+00  0.00000000E+00
  0.00000000E+00  0.00000000E+00  0.00000000E+00
  0.00000000E+00  0.00000000E+00  0.00000000E+00
  0.00000000E+00  0.00000000E+00  0.00000000E+00
  0.00000000E+00  0.00000000E+00  0.00000000E+00
  0.00000000E+00  0.00000000E+00  0.00000000E+00
  0.00000000E+00  0.00000000E+00  0.00000000E+00
  0.00000000E+00  0.00000000E+00  0.00000000E+00
  0.00000000E+00  0.00000000E+00  0.00000000E+00
  0.00000000E+00  0.00000000E+00  0.00000000E+00
  0.00000000E+00  0.00000000E+00  0.00000000E+00
  0.00000000E+00  0.00000000E+00  0.00000000E+00
  0.00000000E+00  0.00000000E+00  0.00000000E+00
  0.00000000E+00  0.00000000E+00  0.00000000E+00
  0.00000000E+00  0.00000000E+00  0.00000000E+00
  0.00000000E+00  0.00000000E+00  0.00000000E+00
  0.00000000E+00  0.00000000E+00  0.00000000E+00
  0.00000000E+00  0.00000000E+00  0.00000000E+00
  0.00000000E+00  0.00000000E+00  0.00000000E+00
  0.00000000E+00  0.00000000E+00  0.00000000E+00
  0.00000000E+00  0.00000000E+00  0.00000000E+00
  0.00000000E+00  0.00000000E+00  0.00000000E+00
  0.00000000E+00  0.00000000E+00  0.00000000E+00
  0.00000000E+00  0.00000000E+00  0.00000000E+00
  0.00000000E+00  0.00000000E+00  0.00000000E+00
  0.00000000E+00  0.00000000E+00  0.00000000E+00
  0.00000000E+00  0.00000000E+00  0.00000000E+00
  0.00000000E+00  0.00000000E+00  0.00000000E+00
  0.00000000E+00  0.00000000E+00  0.00000000E+00
  0.00000000E+00  0.00000000E+00  0.00000000E+00
  0.00000000E+00  0.00000000E+00  0.00000000E+00
  0.00000000E+00  0.00000000E+00  0.00000000E+00
  0.00000000E+00  0.00000000E+00  0.00000000E+00
  0.00000000E+00  0.00000000E+00  0.00000000E+00
  0.00000000E+00  0.00000000E+00  0.00000000E+00
  0.00000000E+00  0.00000000E+00  0.00000000E+00
  0.00000000E+00  0.00000000E+00  0.00000000E+00
  0.00000000E+00  0.00000000E+00  0.00000000E+00
  0.00000000E+00  0.00000000E+00  0.00000000E+00
  0.00000000E+00  0.00000000E+00  0.00000000E+00
  0.00000000E+00  0.00000000E+00  0.00000000E+00
  0.00000000E+00  0.00000000E+00  0.00000000E+00
  0.00000000E+00  0.00000000E+00  0.00000000E+00
  0.00000000E+00  0.00000000E+00  0.00000000E+00
  0.00000000E+00  0.00000000E+00  0.00000000E+00
  0.00000000E+00  0.00000000E+00  0.00000000E+00
  0.00000000E+00  0.00000000E+00  0.00000000E+00
  0.00000000E+00  0.00000000E+00  0.00000000E+00
  0.00000000E+00  0.00000000E+00  0.00000000E+00
  0.00000000E+00  0.00000000E+00  0.00000000E+00
  0.00000000E+00  0.00000000E+00  0.00000000E+00
  0.00000000E+00  0.00000000E+00  0.00000000E+00
  0.00000000E+00  0.00000000E+00  0.00000000E+00
  0.00000000E+00  0.00000000E+00  0.00000000E+00
  0.00000000E+00  0.00000000E+00  0.00000000E+00
  0.00000000E+00  0.00000000E+00  0.00000000E+00
  0.00000000E+00  0.00000000E+00  0.00000000E+00
  0.00000000E+00  0.00000000E+00  0.00000000E+00
  0.00000000E+00  0.00000000E+00  0.00000000E+00
  0.00000000E+00  0.00000000E+00  0.00000000E+00
  0.00000000E+00  0.00000000E+00  0.00000000E+00
  0.00000000E+00  0.00000000E+00  0.00000000E+00
  0.00000000E+00  0.00000000E+00  0.00000000E+00
  0.00000000E+00  0.00000000E+00  0.00000000E+00
  0.00000000E+00  0.00000000E+00  0.00000000E+00
  0.00000000E+00  0.00000000E+00  0.00000000E+00
  0.00000000E+00  0.00000000E+00  0.00000000E+00
  0.00000000E+00  0.00000000E+00  0.00000000E+00
  0.00000000E+00  0.00000000E+00  0.00000000E+00
  0.00000000E+00  0.00000000E+00  0.00000000E+00
  0.00000000E+00  0.00000000E+00  0.00000000E+00
  0.00000000E+00  0.00000000E+00  0.00000000E+00
  0.00000000E+00  0.00000000E+00  0.00000000E+00
  0.00000000E+00  0.00000000E+00  0.00000000E+00
  0.00000000E+00  0.00000000E+00  0.00000000E+00
  0.00000000E+00  0.00000000E+00  0.00000000E+00
  0.00000000E+00  0.00000000E+00  0.00000000E+00
  0.00000000E+00  0.00000000E+00  0.00000000E+00
  0.00000000E+00  0.00000000E+00  0.00000000E+00
  0.00000000E+00  0.00000000E+00  0.00000000E+00
  0.00000000E+00  0.00000000E+00  0.00000000E+00
  0.00000000E+00  0.00000000E+00  0.00000000E+00
  0.00000000E+00  0.00000000E+00  0.00000000E+00
  0.00000000E+00  0.00000000E+00  0.00000000E+00
  0.00000000E+00  0.00000000E+00  0.00000000E+00
  0.00000000E+00  0.00000000E+00  0.00000000E+00
  0.00000000E+00  0.00000000E+00  0.00000000E+00
  0.00000000E+00  0.00000000E+00  0.00000000E+00
  0.00000000E+00  0.00000000E+00  0.00000000E+00
  0.00000000E+00  0.00000000E+00  0.00000000E+00
  0.00000000E+00  0.00000000E+00  0.00000000E+00
  0.00000000E+00  0.00000000E+00  0.00000000E+00
  0.00000000E+00  0.00000000E+00  0.00000000E+00
  0.00000000E+00  0.00000000E+00  0.00000000E+00
  0.00000000E+00  0.00000000E+00  0.00000000E+00
  0.00000000E+00  0.00000000E+00  0.00000000E+00
  0.00000000E+00  0.00000000E+00  0.00000000E+00
  0.00000000E+00  0.00000000E+00  0.00000000E+00
  0.00000000E+00  0.00000000E+00  0.00000000E+00
  0.00000000E+00  0.00000000E+00  0.00000000E+00
  0.00000000E+00  0.00000000E+00  0.00000000E+00
  0.00000000E+00  0.00000000E+00  0.00000000E+00
  0.00000000E+00  0.00000000E+00  0.00000000E+00
  0.00000000E+00  0.00000000E+00  0.00000000E+00
  0.00000000E+00  0.00000000E+00  0.00000000E+00
  0.00000000E+00  0.00000000E+00  0.00000000E+00
  0.00000000E+00  0.00000000E+00  0.00000000E+00
  0.00000000E+00  0.00000000E+00  0.00000000E+00
  0.00000000E+00  0.00000000E+00  0.00000000E+00
  0.00000000E+00  0.00000000E+00  0.00000000E+00
  0.00000000E+00  0.00000000E+00  0.00000000E+00
  0.00000000E+00  0.00000000E+00  0.00000000E+00
  0.00000000E+00  0.00000000E+00  0.00000000E+00
  0.00000000E+00  0.00000000E+00  0.00000000E+00
  0.00000000E+00  0.00000000E+00  0.00000000E+00
  0.00000000E+00  0.00000000E+00  0.00000000E+00
  0.00000000E+00  0.00000000E+00  0.00000000E+00
  0.00000000E+00  0.00000000E+00  0.00000000E+00
  0.00000000E+00  0.00000000E+00  0.00000000E+00
  0.00000000E+00  0.00000000E+00  0.00000000E+00
  0.00000000E+00  0.00000000E+00  0.00000000E+00
  0.00000000E+00  0.00000000E+00  0.00000000E+00
  0.00000000E+00  0.00000000E+00  0.00000000E+00
  0.00000000E+00  0.00000000E+00  0.00000000E+00
  0.00000000E+00  0.00000000E+00  0.00000000E+00
  0.00000000E+00  0.00000000E+00  0.00000000E+00
