#generated using str2pos                
    1.000000000000000     
    12.9011644721035896    0.0028208898552140    0.0058110385046200
     0.0028198134794596   12.9021476724332462    0.0041596903986379
     0.0058099426960864    0.0041591875115492   12.9111033429320319
   Ta   W 
    58    70
Direct
  0.1257655311036297  0.1260255209611981  0.1240357532581724
  0.3739431991203443  0.1260336720601377  0.1244693479312134
  0.6244105344378617  0.1289466550614011  0.1252358421386731
  0.8778689550997969  0.1276055184983140  0.1248500636115050
  0.2518922561708445  0.5002983983976877  0.2514063122637690
  0.1261686037822060  0.3724090062728609  0.1247957069414405
  0.3763503641343230  0.3733098279582549  0.1245227892649332
  0.6247571042248767  0.3751958753733947  0.1255130498479600
  0.8745543120421112  0.3733727320540616  0.1255333568713226
  0.2527849609030658  0.7497406709113914  0.2501705336393813
  0.1255309897744315  0.6218530278182577  0.1261788035278317
  0.4991690937217553  0.7493270095262545  0.2543375432671688
  0.6254455977911454  0.6222886415493758  0.1249967264875054
 -0.0003733668547691  0.7542322796267399  0.2481768256355254
  0.8731467997246379  0.6219013974708073  0.1275358870629792
  0.5005793279915681 -0.0000852062456814  0.2549828355569756
  0.3755084523750520  0.8782940167321934  0.1225646001298832
  0.7511747034818121 -0.0004834373624161  0.2532511092960169
  0.6231295294672432  0.8741827252099093  0.1238738044966498
 -0.0004149968669337  0.2498069973261185  0.4974731697194395
  0.5017986359807286  0.5017423242068367  0.5006847488465584
  0.3752202017375492  0.3724197850267958  0.3753954309344014
  0.7469782919267994  0.4996869939867177  0.5020301314518774
  0.8741677231342602  0.3755636363297156  0.3723854026127891
  0.2508062815272498  0.7495969366922822  0.5017285538696070
  0.1218534218262730  0.6230545420537683  0.3778101155949475
  0.5000946773248374  0.7485510557363586  0.4997396672899121
  0.8752823441246159  0.6238101149027213  0.3745710326472906
  0.1244575137134614  0.8774836738768520  0.3753746999330339
  0.5021637874636212 -0.0004662798086657  0.4993663681304761
  0.7492802426655181 -0.0012567203302528  0.4990842397605593
 -0.0015356729179444 -0.0001950399450254  0.4986816438287057
  0.1263792557418951  0.1255525796949042  0.6272979629838003
  0.5009931142887912  0.2488070435791601  0.7506123012674329
  0.3709476644374688  0.1258926506275398  0.6236939101396024
  0.7477173318798211  0.2494286456853579  0.7478163652243442
  0.8766992591775948  0.1257309608840329  0.6250424158703410
  0.2498143727530465  0.5021527002204175  0.7519500891917892
  0.1254026869421876  0.3747931821013573  0.6251866419546529
  0.3725209473392138  0.3737610843690653  0.6243073807985169
  0.7490109581240150  0.4991052024016557  0.7441861144002626
  0.7504456371171228  0.7496904909314666  0.7450351977458650
  0.0021427391485047  0.7499812291182141  0.7478110360930417
  0.5001434926771544  0.0017057122115279  0.7502952533851017
  0.3725248233166524  0.8755996335074249  0.6282317126695002
  0.7485282859893493  0.0012749936870702  0.7478142667224309
  0.1258895248841133  0.1250259231298472  0.8749698189876874
  0.6235260429941707  0.3767087576492995  0.8785132781478714
  0.0036007578989054  0.5002035552161559 -0.0027061992176276
  0.8757981109768205  0.3739264469492757  0.8757998164374927
  0.2494418955216909  0.7501648143481199 -0.0017497000737288
  0.7530186184157391  0.7525876317796533  0.0010200682944701
  0.6213344339596498  0.6242009807454288  0.8766778942816864
  0.0039620416801013  0.7513162124060064 -0.0006435725271197
  0.8744614793316573  0.6217996619198445  0.8742362026460523
  0.7518115326810803  0.0007478941259488 -0.0009878978838410
  0.6214717154631474  0.8729225097238246  0.8761551372439714
  0.8779620999001904  0.8775368236462812  0.8734313365167633
  0.2495333902761369  0.2490552204120841  0.2520816653063103
  0.5006485518516842  0.2490585661714654  0.2529937246861726
  0.7493512012602569  0.2487939148665621  0.2529318562385812
  0.0010231617046353  0.2480750278665217  0.2524607257549064
  0.4991745791947966  0.5016883841179408  0.2527331996647191
  0.7473994035438403  0.4990195210060186  0.2532927862749450
  0.0014705133067232  0.4983189939970894  0.2509391704269283
  0.3773504744084298  0.6231194846063118  0.1230603134382162
  0.7495345052295228  0.7517557749228319  0.2526492641053915
  0.2501352720109276  0.0006184187445480  0.2515067340451685
  0.1268613387823451  0.8799350393956570  0.1250403829181987
 -0.0003453335384850 -0.0002628404178278  0.2504523150347789
  0.8766524277221026  0.8772440193500041  0.1258029940131222
  0.2487091381889392  0.2488391509466875  0.4977834358403198
  0.1270762443024496  0.1248765989802910  0.3730852699606867
  0.5018716935751563  0.2494644290519149  0.4999594303168265
  0.3734995812912331  0.1276414355055881  0.3751933928296107
  0.7485384856735819  0.2499816658622061  0.5000916751052218
  0.6247703913142429  0.1284253606326731  0.3748950291497342
  0.8751838574155404  0.1270700017535080  0.3730061461310573
  0.2499654170815881  0.5015992416282921  0.5013963940914186
  0.1248816885658851  0.3740924752969677  0.3752340504603062
  0.6247821930090016  0.3731916704147049  0.3732410980859364
 -0.0015506593066992  0.4991134311300192  0.5022714219723324
  0.3746977168684649  0.6219535707696390  0.3764257412988101
  0.7485568105225758  0.7503370832124934  0.5005452047336550
  0.6272885654051475  0.6239865425487721  0.3736573117470700
 -0.0012022042871744  0.7508607396203253  0.5025502266463168
  0.2495379192402636 -0.0005494914071564  0.4992906289186739
  0.3726006157146433  0.8776581925402601  0.3762289722245867
  0.6273456728613822  0.8729607111114015  0.3754635259641766
  0.8755185510223108  0.8728819916747593  0.3750151070583044
  0.2509468641012104  0.2516322411112891  0.7524427354707648
  0.6244647045438154  0.1267820041532995  0.6225660342156928
 -0.0012115400366414  0.2508233702959566  0.7496143337928347
  0.4975672322959271  0.5004978641816366  0.7489602695507418
  0.6225959276681901  0.3744728143623536  0.6238238947301227
  0.0017171045187646  0.5013109159224872  0.7484043852879289
  0.8769085586935221  0.3745077603131980  0.6239318579395831
  0.2489426018521198  0.7489428656288617  0.7510943972546993
  0.1241823992910900  0.6235943978500913  0.6241450764294092
  0.4981789767222655  0.7495311676446056  0.7484872045304941
  0.3738529682379290  0.6251785617699465  0.6283421187948697
  0.6232945603592263  0.6254988744179560  0.6257614105584778
  0.8766895824957909  0.6249258472409451  0.6218365995724593
  0.2500804250028172 -0.0014883010186570  0.7517581143603733
  0.1261902492938566  0.8758181437443890  0.6256146104926203
  0.6239712231490666  0.8728476494529798  0.6252720716264973
  0.0008286491191151 -0.0020456127150720  0.7491429215371518
  0.8762857838779040  0.8744445424655016  0.6233115075258159
  0.2513756165540619  0.2506707470443065 -0.0023430396231353
  0.4983834820978117  0.2499772241263497 -0.0027570768136294
  0.3722437904153523  0.1255786143588181  0.8764275443076709
  0.7500520829219873  0.2474325137246946 -0.0021521945109739
  0.6236225346132923  0.1260791511345440  0.8776455324211196
  0.0015860333965136  0.2500010150361376 -0.0019675061992623
  0.8788659025633488  0.1268088215226794  0.8752712267533089
  0.2514956105994318  0.5010906174146886 -0.0026985699878984
  0.1255508188035075  0.3723604517313635  0.8742408178697219
  0.4967972264931338  0.5002078670773952 -0.0002762320511637
  0.3746462446767065  0.3755545661926534  0.8765834944179773
  0.7500063939282563  0.4995238674599851 -0.0002474898338273
  0.1275054899151019  0.6245070062685166  0.8729635148674069
  0.4958860653533445  0.7487849023098653 -0.0001888130057873
  0.3764983454226313  0.6248987262439875  0.8750503356572997
  0.2501412962749969 -0.0011246992517520 -0.0019678846417944
  0.1270831939320913  0.8790472615615973  0.8735290562261757
  0.4989985091159493  0.0017984310028228 -0.0026301886066797
  0.3743455623077981  0.8751125768242394  0.8752200325713837
  0.0010601424452097 -0.0012527675044604 -0.0002442250797957
 
  0.00000000E+00  0.00000000E+00  0.00000000E+00
  0.00000000E+00  0.00000000E+00  0.00000000E+00
  0.00000000E+00  0.00000000E+00  0.00000000E+00
  0.00000000E+00  0.00000000E+00  0.00000000E+00
  0.00000000E+00  0.00000000E+00  0.00000000E+00
  0.00000000E+00  0.00000000E+00  0.00000000E+00
  0.00000000E+00  0.00000000E+00  0.00000000E+00
  0.00000000E+00  0.00000000E+00  0.00000000E+00
  0.00000000E+00  0.00000000E+00  0.00000000E+00
  0.00000000E+00  0.00000000E+00  0.00000000E+00
  0.00000000E+00  0.00000000E+00  0.00000000E+00
  0.00000000E+00  0.00000000E+00  0.00000000E+00
  0.00000000E+00  0.00000000E+00  0.00000000E+00
  0.00000000E+00  0.00000000E+00  0.00000000E+00
  0.00000000E+00  0.00000000E+00  0.00000000E+00
  0.00000000E+00  0.00000000E+00  0.00000000E+00
  0.00000000E+00  0.00000000E+00  0.00000000E+00
  0.00000000E+00  0.00000000E+00  0.00000000E+00
  0.00000000E+00  0.00000000E+00  0.00000000E+00
  0.00000000E+00  0.00000000E+00  0.00000000E+00
  0.00000000E+00  0.00000000E+00  0.00000000E+00
  0.00000000E+00  0.00000000E+00  0.00000000E+00
  0.00000000E+00  0.00000000E+00  0.00000000E+00
  0.00000000E+00  0.00000000E+00  0.00000000E+00
  0.00000000E+00  0.00000000E+00  0.00000000E+00
  0.00000000E+00  0.00000000E+00  0.00000000E+00
  0.00000000E+00  0.00000000E+00  0.00000000E+00
  0.00000000E+00  0.00000000E+00  0.00000000E+00
  0.00000000E+00  0.00000000E+00  0.00000000E+00
  0.00000000E+00  0.00000000E+00  0.00000000E+00
  0.00000000E+00  0.00000000E+00  0.00000000E+00
  0.00000000E+00  0.00000000E+00  0.00000000E+00
  0.00000000E+00  0.00000000E+00  0.00000000E+00
  0.00000000E+00  0.00000000E+00  0.00000000E+00
  0.00000000E+00  0.00000000E+00  0.00000000E+00
  0.00000000E+00  0.00000000E+00  0.00000000E+00
  0.00000000E+00  0.00000000E+00  0.00000000E+00
  0.00000000E+00  0.00000000E+00  0.00000000E+00
  0.00000000E+00  0.00000000E+00  0.00000000E+00
  0.00000000E+00  0.00000000E+00  0.00000000E+00
  0.00000000E+00  0.00000000E+00  0.00000000E+00
  0.00000000E+00  0.00000000E+00  0.00000000E+00
  0.00000000E+00  0.00000000E+00  0.00000000E+00
  0.00000000E+00  0.00000000E+00  0.00000000E+00
  0.00000000E+00  0.00000000E+00  0.00000000E+00
  0.00000000E+00  0.00000000E+00  0.00000000E+00
  0.00000000E+00  0.00000000E+00  0.00000000E+00
  0.00000000E+00  0.00000000E+00  0.00000000E+00
  0.00000000E+00  0.00000000E+00  0.00000000E+00
  0.00000000E+00  0.00000000E+00  0.00000000E+00
  0.00000000E+00  0.00000000E+00  0.00000000E+00
  0.00000000E+00  0.00000000E+00  0.00000000E+00
  0.00000000E+00  0.00000000E+00  0.00000000E+00
  0.00000000E+00  0.00000000E+00  0.00000000E+00
  0.00000000E+00  0.00000000E+00  0.00000000E+00
  0.00000000E+00  0.00000000E+00  0.00000000E+00
  0.00000000E+00  0.00000000E+00  0.00000000E+00
  0.00000000E+00  0.00000000E+00  0.00000000E+00
  0.00000000E+00  0.00000000E+00  0.00000000E+00
  0.00000000E+00  0.00000000E+00  0.00000000E+00
  0.00000000E+00  0.00000000E+00  0.00000000E+00
  0.00000000E+00  0.00000000E+00  0.00000000E+00
  0.00000000E+00  0.00000000E+00  0.00000000E+00
  0.00000000E+00  0.00000000E+00  0.00000000E+00
  0.00000000E+00  0.00000000E+00  0.00000000E+00
  0.00000000E+00  0.00000000E+00  0.00000000E+00
  0.00000000E+00  0.00000000E+00  0.00000000E+00
  0.00000000E+00  0.00000000E+00  0.00000000E+00
  0.00000000E+00  0.00000000E+00  0.00000000E+00
  0.00000000E+00  0.00000000E+00  0.00000000E+00
  0.00000000E+00  0.00000000E+00  0.00000000E+00
  0.00000000E+00  0.00000000E+00  0.00000000E+00
  0.00000000E+00  0.00000000E+00  0.00000000E+00
  0.00000000E+00  0.00000000E+00  0.00000000E+00
  0.00000000E+00  0.00000000E+00  0.00000000E+00
  0.00000000E+00  0.00000000E+00  0.00000000E+00
  0.00000000E+00  0.00000000E+00  0.00000000E+00
  0.00000000E+00  0.00000000E+00  0.00000000E+00
  0.00000000E+00  0.00000000E+00  0.00000000E+00
  0.00000000E+00  0.00000000E+00  0.00000000E+00
  0.00000000E+00  0.00000000E+00  0.00000000E+00
  0.00000000E+00  0.00000000E+00  0.00000000E+00
  0.00000000E+00  0.00000000E+00  0.00000000E+00
  0.00000000E+00  0.00000000E+00  0.00000000E+00
  0.00000000E+00  0.00000000E+00  0.00000000E+00
  0.00000000E+00  0.00000000E+00  0.00000000E+00
  0.00000000E+00  0.00000000E+00  0.00000000E+00
  0.00000000E+00  0.00000000E+00  0.00000000E+00
  0.00000000E+00  0.00000000E+00  0.00000000E+00
  0.00000000E+00  0.00000000E+00  0.00000000E+00
  0.00000000E+00  0.00000000E+00  0.00000000E+00
  0.00000000E+00  0.00000000E+00  0.00000000E+00
  0.00000000E+00  0.00000000E+00  0.00000000E+00
  0.00000000E+00  0.00000000E+00  0.00000000E+00
  0.00000000E+00  0.00000000E+00  0.00000000E+00
  0.00000000E+00  0.00000000E+00  0.00000000E+00
  0.00000000E+00  0.00000000E+00  0.00000000E+00
  0.00000000E+00  0.00000000E+00  0.00000000E+00
  0.00000000E+00  0.00000000E+00  0.00000000E+00
  0.00000000E+00  0.00000000E+00  0.00000000E+00
  0.00000000E+00  0.00000000E+00  0.00000000E+00
  0.00000000E+00  0.00000000E+00  0.00000000E+00
  0.00000000E+00  0.00000000E+00  0.00000000E+00
  0.00000000E+00  0.00000000E+00  0.00000000E+00
  0.00000000E+00  0.00000000E+00  0.00000000E+00
  0.00000000E+00  0.00000000E+00  0.00000000E+00
  0.00000000E+00  0.00000000E+00  0.00000000E+00
  0.00000000E+00  0.00000000E+00  0.00000000E+00
  0.00000000E+00  0.00000000E+00  0.00000000E+00
  0.00000000E+00  0.00000000E+00  0.00000000E+00
  0.00000000E+00  0.00000000E+00  0.00000000E+00
  0.00000000E+00  0.00000000E+00  0.00000000E+00
  0.00000000E+00  0.00000000E+00  0.00000000E+00
  0.00000000E+00  0.00000000E+00  0.00000000E+00
  0.00000000E+00  0.00000000E+00  0.00000000E+00
  0.00000000E+00  0.00000000E+00  0.00000000E+00
  0.00000000E+00  0.00000000E+00  0.00000000E+00
  0.00000000E+00  0.00000000E+00  0.00000000E+00
  0.00000000E+00  0.00000000E+00  0.00000000E+00
  0.00000000E+00  0.00000000E+00  0.00000000E+00
  0.00000000E+00  0.00000000E+00  0.00000000E+00
  0.00000000E+00  0.00000000E+00  0.00000000E+00
  0.00000000E+00  0.00000000E+00  0.00000000E+00
  0.00000000E+00  0.00000000E+00  0.00000000E+00
  0.00000000E+00  0.00000000E+00  0.00000000E+00
  0.00000000E+00  0.00000000E+00  0.00000000E+00
  0.00000000E+00  0.00000000E+00  0.00000000E+00
  0.00000000E+00  0.00000000E+00  0.00000000E+00
