#BCC aalvarado POSCAR generator         
    12.76000000000000     
     1.0087729637303040    0.0006614463605734    0.0004541172842932
     0.0006614146591456    1.0084867485224978    0.0001610618377431
     0.0004542282039321    0.0001611888595215    1.0088835342924702
   Ta   W 
    51    77
Direct
  0.3755705652076342  0.3760199001981958  0.3751443821371833
  0.3742898824662399  0.6234687067263933  0.3736608595042420
  0.3754429572394989  0.6225009722664746  0.6218044140900179
  0.7488262182770981  0.5015062505084609  0.7509958434095603
  0.5033843301971554  0.7501427660892266  0.5007918416800732
  0.5013113624703328  0.7488028667551880  0.7490984462429089
  0.7483488821191722  0.7489826434888264  0.2501667499987911
  0.7485701855071722  0.5007546623565521  0.2494289065194904
  0.7501740961152606  0.2536082270857449  0.2474547122951295
  0.2472545219203665  0.2503216365936877  0.2505784427095686
  0.4989873776955444  0.2514790357772814  0.7492268035466185
  0.2523840755667633  0.2477563497810022  0.7481695436596832
  0.2510517036109107  0.5004735942458852  0.7512523333599629
  0.2504843933526584  0.7494022027784181  0.7500464664464149
  0.8753616782353615  0.8731181504564960  0.8733178835423486
  0.6265303628766999  0.8765108270425582  0.8741482745335359
  0.8758913795459108  0.8753319691472596  0.3734110281714375
  0.8754970206826328  0.3741009617647433  0.3758625282075283
  0.8743615596770344  0.3737654039825580  0.6250259415948197
  0.3754778696460269  0.3753942187787473  0.8783609485539560
  0.3714188115232842  0.8733223909908354  0.3740457151536431
  0.3745021314004219  0.8780161819568687  0.8759891954583695
  0.8780510124457388  0.6254409799167819  0.1234035359927421
  0.3754423261923271  0.3762060337263673  0.1245094025507505
  0.3733244192982443  0.6234976533723530  0.1263567155540971
  0.6236756164687168  0.1269668261886035  0.1237526129185810
  0.8755981048745745  0.1263866631319508  0.3747559774051689
  0.6253310556341316  0.1277251426774769  0.3752079997824330
  0.3741115383369413  0.1260928498471954  0.3759839847749984
  0.6262691727587114  0.1265847906364741  0.6264825721444568
  0.1250870811360786  0.1250935537545987  0.1252642440261861
  0.1233294967755282  0.3733851521661964  0.6243225015896289
  0.1250105918236258  0.6246961241149088  0.1248173881416826
  0.1247974350370761  0.6241967926228214  0.6248020070848497
  0.8747494676022680  0.1270823076693042  0.8733017501558407
  0.6252565445520065  0.1255321918913924  0.8749927099065267
  0.1246450771592893  0.1251645626233303  0.8752924394001736
  0.1230841058579864  0.3747910309100121  0.8770033710234063
  0.1259024211098375  0.8736028613641783  0.1262586783845527
  0.1265922608782234  0.8745994697206325  0.3731696408229027
  0.1251954551829015  0.8750269942282745  0.8758205491679489
 -0.0025067300144703  0.0001672573278445  0.0024046380604998
  0.7515602410853448 -0.0001979305339277  0.0028867768990374
  0.0012573218743007  0.0000944672770381  0.5029649058307308
 -0.0015404807355161  0.7489289253451924  0.5013959587931013
  0.7508149880345959 -0.0022047614510670  0.5022574096998129
 -0.0009870488423079  0.5020678783807759  0.4974714721542150
  0.7495242344107558  0.4995869302245882 -0.0017038713964521
  0.5012133543854141  0.7487671638953132  0.0001244497266652
  0.5003229632449752 -0.0025921807813054  0.5015527802204366
  0.4998457701227789 -0.0019130852050048  0.2488028607086044
  0.0006830816042777  0.2512649111734244  0.2491020531250077
  0.5001604743215582  0.2511013856442074 -0.0007934584520076
  0.2506999048308047  0.0004891034164763  0.7479989222060333
  0.2521296554174439  0.0010259185410088  0.0005265731096706
  0.5026897189150720  0.4994037147820851  0.4999990614493233
  0.6263259768874885  0.6236336836532578  0.6240859636426924
  0.6240186371713548  0.6235202052717433  0.3756991539791165
  0.6231812768159418  0.3759278274206225  0.3762509561580138
  0.6254788872672908  0.3755249277069955  0.6233648501882961
  0.3760706909238603  0.3751808057072990  0.6223014207231568
  0.7505975898139815  0.7479043518247285  0.7481915717785305
  0.7495574995078393  0.7489321598323310  0.5002203555664673
  0.7483124392555421  0.5018473638109052  0.5003123594505458
  0.5022513081218178  0.4997812160389033  0.7496638772766715
  0.5029557536141945  0.5002670343169076  0.2500160792493930
  0.5027690515479522  0.7504590835134277  0.2488709502901829
  0.5001895612081072  0.2511680797409573  0.2490091072421824
  0.7493223141765594  0.2513669189540138  0.5004903427388218
  0.4995436346002117  0.2520764359138130  0.5021148423860488
  0.2493521298769881  0.2485282820519625  0.5002421899770518
  0.2472091631989636  0.4983892754847615  0.2504615973120569
  0.2488189845234150  0.4979157323473560  0.4989972964944300
  0.7496855049791820  0.2528138461141846  0.7502017543545103
  0.2499546113842026  0.7492805039517147  0.2497582256995826
  0.2490417912418866  0.7503859372981566  0.5006361993974531
  0.8747880466538085  0.8738554683181637  0.6277932677935300
  0.8736578536113477  0.6253114533372471  0.6262899498316216
  0.8762609010787465  0.6262762744383424  0.8748571041948258
  0.6259870205734166  0.6251582870056029  0.8744747305691056
  0.6275114809355438  0.8745049527514861  0.6272097502745433
  0.8744288286795188  0.6249307388994800  0.3745489262095807
  0.6259045241821063  0.8734151410174825  0.3744998511272752
  0.8761356208938585  0.3743303862875267  0.8746154432820874
  0.6241385789589454  0.3749897089961583  0.8752518561407003
  0.3754223692560988  0.6235663785186213  0.8768847020336425
  0.3739135645997012  0.8760264358766888  0.6252740175846551
  0.8760294954716576  0.8736132079300853  0.1256849256186527
  0.6233038714217704  0.6246867156052713  0.1248321140761195
  0.6249489906987106  0.8749242838525492  0.1245769373045148
  0.8769219120776629  0.3753343481075987  0.1238520265690307
  0.6226027425704632  0.3749701318251622  0.1239457351179432
  0.3733890830406052  0.8743647528385025  0.1248050608989704
  0.8757868230873724  0.1266450610982130  0.1259108166157414
  0.3745257360666731  0.1253954466510344  0.1238805640945053
  0.8756155580465332  0.1266584259167919  0.6268396821418493
  0.3742356377656246  0.1239833490241694  0.6244430650392506
  0.1248000990454150  0.1249394674229797  0.3753938633776601
  0.1241189163443779  0.3759137435201083  0.1245783422194543
  0.1249616506636380  0.3750082659057903  0.3747036446862435
  0.1252823405356240  0.1245786812247518  0.6252193203381740
  0.1263690672343692  0.6248124923553974  0.3726993168753667
  0.3752062448311002  0.1239500610316377  0.8763657551682166
  0.1231464743298669  0.6246250526294291  0.8770294866705053
  0.1256827125266750  0.8758056932306928  0.6259669275588654
  0.0006185977492113 -0.0002028110958054  0.7471717242467528
 -0.0007877285955456  0.7494150860537816  0.7490567586365914
 -0.0006615997910631  0.7484252464303538 -0.0015145484079544
  0.7490553796823706  0.7488891065455843  0.0005831824924346
  0.7512666917862137 -0.0008999992961529  0.7480748203705915
 -0.0025116868772780  0.5016093187807357  0.7515179560950442
 -0.0015414395586723  0.4991624005988210 -0.0003317281790546
  0.5028880159127853  0.5012754906693802 -0.0007201763133493
  0.4984125461533332  0.0005590483040533  0.7486147528210746
  0.4988513344869733 -0.0000547326194186  0.0021051753161466
 -0.0005340084531690  0.0014494536864180  0.2501405253644513
 -0.0013806412208904  0.7486633119761389  0.2508961558101848
  0.7493366513276338 -0.0017884058565012  0.2488878449164593
  0.0000624609182504  0.4988254696541745  0.2504889882307101
  0.0018977064732006  0.2483603258860231  0.4998265946235018
 -0.0008551993832269  0.2491323918504032  0.7495611986462197
 -0.0020177151145158  0.2520845905112847  0.0015847872241163
  0.7505275422108484  0.2532574591514465  0.0005435663209574
  0.2505225360493623  0.2491488195097301  0.0014214415033073
  0.2488683617134414  0.5005658362285229 -0.0007593254818091
  0.2515235975313860  0.7492753950393283 -0.0008877344268739
  0.2512308925748872  0.0013953181923070  0.2492557494296257
  0.2490727560140405  0.0011322058574762  0.5026961396661476
 
  0.00000000E+00  0.00000000E+00  0.00000000E+00
  0.00000000E+00  0.00000000E+00  0.00000000E+00
  0.00000000E+00  0.00000000E+00  0.00000000E+00
  0.00000000E+00  0.00000000E+00  0.00000000E+00
  0.00000000E+00  0.00000000E+00  0.00000000E+00
  0.00000000E+00  0.00000000E+00  0.00000000E+00
  0.00000000E+00  0.00000000E+00  0.00000000E+00
  0.00000000E+00  0.00000000E+00  0.00000000E+00
  0.00000000E+00  0.00000000E+00  0.00000000E+00
  0.00000000E+00  0.00000000E+00  0.00000000E+00
  0.00000000E+00  0.00000000E+00  0.00000000E+00
  0.00000000E+00  0.00000000E+00  0.00000000E+00
  0.00000000E+00  0.00000000E+00  0.00000000E+00
  0.00000000E+00  0.00000000E+00  0.00000000E+00
  0.00000000E+00  0.00000000E+00  0.00000000E+00
  0.00000000E+00  0.00000000E+00  0.00000000E+00
  0.00000000E+00  0.00000000E+00  0.00000000E+00
  0.00000000E+00  0.00000000E+00  0.00000000E+00
  0.00000000E+00  0.00000000E+00  0.00000000E+00
  0.00000000E+00  0.00000000E+00  0.00000000E+00
  0.00000000E+00  0.00000000E+00  0.00000000E+00
  0.00000000E+00  0.00000000E+00  0.00000000E+00
  0.00000000E+00  0.00000000E+00  0.00000000E+00
  0.00000000E+00  0.00000000E+00  0.00000000E+00
  0.00000000E+00  0.00000000E+00  0.00000000E+00
  0.00000000E+00  0.00000000E+00  0.00000000E+00
  0.00000000E+00  0.00000000E+00  0.00000000E+00
  0.00000000E+00  0.00000000E+00  0.00000000E+00
  0.00000000E+00  0.00000000E+00  0.00000000E+00
  0.00000000E+00  0.00000000E+00  0.00000000E+00
  0.00000000E+00  0.00000000E+00  0.00000000E+00
  0.00000000E+00  0.00000000E+00  0.00000000E+00
  0.00000000E+00  0.00000000E+00  0.00000000E+00
  0.00000000E+00  0.00000000E+00  0.00000000E+00
  0.00000000E+00  0.00000000E+00  0.00000000E+00
  0.00000000E+00  0.00000000E+00  0.00000000E+00
  0.00000000E+00  0.00000000E+00  0.00000000E+00
  0.00000000E+00  0.00000000E+00  0.00000000E+00
  0.00000000E+00  0.00000000E+00  0.00000000E+00
  0.00000000E+00  0.00000000E+00  0.00000000E+00
  0.00000000E+00  0.00000000E+00  0.00000000E+00
  0.00000000E+00  0.00000000E+00  0.00000000E+00
  0.00000000E+00  0.00000000E+00  0.00000000E+00
  0.00000000E+00  0.00000000E+00  0.00000000E+00
  0.00000000E+00  0.00000000E+00  0.00000000E+00
  0.00000000E+00  0.00000000E+00  0.00000000E+00
  0.00000000E+00  0.00000000E+00  0.00000000E+00
  0.00000000E+00  0.00000000E+00  0.00000000E+00
  0.00000000E+00  0.00000000E+00  0.00000000E+00
  0.00000000E+00  0.00000000E+00  0.00000000E+00
  0.00000000E+00  0.00000000E+00  0.00000000E+00
  0.00000000E+00  0.00000000E+00  0.00000000E+00
  0.00000000E+00  0.00000000E+00  0.00000000E+00
  0.00000000E+00  0.00000000E+00  0.00000000E+00
  0.00000000E+00  0.00000000E+00  0.00000000E+00
  0.00000000E+00  0.00000000E+00  0.00000000E+00
  0.00000000E+00  0.00000000E+00  0.00000000E+00
  0.00000000E+00  0.00000000E+00  0.00000000E+00
  0.00000000E+00  0.00000000E+00  0.00000000E+00
  0.00000000E+00  0.00000000E+00  0.00000000E+00
  0.00000000E+00  0.00000000E+00  0.00000000E+00
  0.00000000E+00  0.00000000E+00  0.00000000E+00
  0.00000000E+00  0.00000000E+00  0.00000000E+00
  0.00000000E+00  0.00000000E+00  0.00000000E+00
  0.00000000E+00  0.00000000E+00  0.00000000E+00
  0.00000000E+00  0.00000000E+00  0.00000000E+00
  0.00000000E+00  0.00000000E+00  0.00000000E+00
  0.00000000E+00  0.00000000E+00  0.00000000E+00
  0.00000000E+00  0.00000000E+00  0.00000000E+00
  0.00000000E+00  0.00000000E+00  0.00000000E+00
  0.00000000E+00  0.00000000E+00  0.00000000E+00
  0.00000000E+00  0.00000000E+00  0.00000000E+00
  0.00000000E+00  0.00000000E+00  0.00000000E+00
  0.00000000E+00  0.00000000E+00  0.00000000E+00
  0.00000000E+00  0.00000000E+00  0.00000000E+00
  0.00000000E+00  0.00000000E+00  0.00000000E+00
  0.00000000E+00  0.00000000E+00  0.00000000E+00
  0.00000000E+00  0.00000000E+00  0.00000000E+00
  0.00000000E+00  0.00000000E+00  0.00000000E+00
  0.00000000E+00  0.00000000E+00  0.00000000E+00
  0.00000000E+00  0.00000000E+00  0.00000000E+00
  0.00000000E+00  0.00000000E+00  0.00000000E+00
  0.00000000E+00  0.00000000E+00  0.00000000E+00
  0.00000000E+00  0.00000000E+00  0.00000000E+00
  0.00000000E+00  0.00000000E+00  0.00000000E+00
  0.00000000E+00  0.00000000E+00  0.00000000E+00
  0.00000000E+00  0.00000000E+00  0.00000000E+00
  0.00000000E+00  0.00000000E+00  0.00000000E+00
  0.00000000E+00  0.00000000E+00  0.00000000E+00
  0.00000000E+00  0.00000000E+00  0.00000000E+00
  0.00000000E+00  0.00000000E+00  0.00000000E+00
  0.00000000E+00  0.00000000E+00  0.00000000E+00
  0.00000000E+00  0.00000000E+00  0.00000000E+00
  0.00000000E+00  0.00000000E+00  0.00000000E+00
  0.00000000E+00  0.00000000E+00  0.00000000E+00
  0.00000000E+00  0.00000000E+00  0.00000000E+00
  0.00000000E+00  0.00000000E+00  0.00000000E+00
  0.00000000E+00  0.00000000E+00  0.00000000E+00
  0.00000000E+00  0.00000000E+00  0.00000000E+00
  0.00000000E+00  0.00000000E+00  0.00000000E+00
  0.00000000E+00  0.00000000E+00  0.00000000E+00
  0.00000000E+00  0.00000000E+00  0.00000000E+00
  0.00000000E+00  0.00000000E+00  0.00000000E+00
  0.00000000E+00  0.00000000E+00  0.00000000E+00
  0.00000000E+00  0.00000000E+00  0.00000000E+00
  0.00000000E+00  0.00000000E+00  0.00000000E+00
  0.00000000E+00  0.00000000E+00  0.00000000E+00
  0.00000000E+00  0.00000000E+00  0.00000000E+00
  0.00000000E+00  0.00000000E+00  0.00000000E+00
  0.00000000E+00  0.00000000E+00  0.00000000E+00
  0.00000000E+00  0.00000000E+00  0.00000000E+00
  0.00000000E+00  0.00000000E+00  0.00000000E+00
  0.00000000E+00  0.00000000E+00  0.00000000E+00
  0.00000000E+00  0.00000000E+00  0.00000000E+00
  0.00000000E+00  0.00000000E+00  0.00000000E+00
  0.00000000E+00  0.00000000E+00  0.00000000E+00
  0.00000000E+00  0.00000000E+00  0.00000000E+00
  0.00000000E+00  0.00000000E+00  0.00000000E+00
  0.00000000E+00  0.00000000E+00  0.00000000E+00
  0.00000000E+00  0.00000000E+00  0.00000000E+00
  0.00000000E+00  0.00000000E+00  0.00000000E+00
  0.00000000E+00  0.00000000E+00  0.00000000E+00
  0.00000000E+00  0.00000000E+00  0.00000000E+00
  0.00000000E+00  0.00000000E+00  0.00000000E+00
  0.00000000E+00  0.00000000E+00  0.00000000E+00
  0.00000000E+00  0.00000000E+00  0.00000000E+00
  0.00000000E+00  0.00000000E+00  0.00000000E+00
  0.00000000E+00  0.00000000E+00  0.00000000E+00
