#BCC aalvarado POSCAR generator         
    12.76000000000000     
     1.0012148020516440   -0.0000116149457110    0.0000697851341789
    -0.0000116089423397    1.0010529965802670   -0.0001253711713369
     0.0000697891867340   -0.0001253682874841    1.0009933482941273
   Ta   W 
    25   103
Direct
  0.4991941275424602  0.4995792350953194  0.5019651917161955
  0.6269065775348519  0.6264904969433472  0.3759670580112106
  0.7487553621494281  0.7502795579805190  0.7503402523891713
  0.5007338116068401  0.4990317279942653  0.7485704670896254
  0.7517941495561848  0.4989446465078952  0.2486877612466857
  0.5010934458431111  0.7519767796115853  0.2510788195345360
  0.2498114992796875  0.2502488961876884  0.2507548640687926
  0.2487498958949813  0.2523058531314022  0.5012500079076475
  0.2483504978972354  0.5011509809808689  0.2526483796331564
  0.2490716089318111  0.7504448806932781  0.7485826716863416
  0.8753704353322302  0.8758532152810231  0.8759644156790815
  0.8764181204577209  0.6239684148371148  0.6246300835878366
  0.8764872765351416  0.6261929649853053  0.3758115556530718
  0.3745205944897566  0.6251043452177909  0.8760017410852659
  0.6249270670212350  0.3733170634273728  0.1234383066045605
  0.3765995828799181  0.3752576515829056  0.1228171876718387
  0.3744596850453171  0.6260318275172608  0.1230933214595957
  0.3739993849820480  0.8759293375280831  0.1244163129532288
  0.8743033187756021  0.1244277575894192  0.1251394583655475
  0.3770272717098571  0.1227140349231546  0.3757254558144254
  0.3763287283094514  0.1236611338530549  0.6263256903989579
  0.1227040184938293  0.1225178154136949  0.3754675881911106
  0.1227946705851232  0.3754979582126844  0.1225807703830374
  0.3750814448454350  0.1249218429936896  0.8746743003057802
  0.1249425947231371  0.1251499718403554  0.8749638135032916
  0.1245626736086244  0.8747372255773929  0.1255016415126742
  0.0010755523069018  0.7497563196171912  0.7501204781329293
  0.0014052447593444  0.4989400577304866  0.5008792458697222
  0.0004168453760152  0.4987527446542910  0.7505809791317728
 -0.0014922149025349  0.5011213702009742 -0.0015913795221252
  0.0005276706204724  0.7511049278342709  0.2493920546631423
 -0.0003965005718805  0.5007401322668054  0.2496943762751092
 -0.0015461459469165  0.2508299270033790  0.7491013546924127
  0.2498880040180884  0.2496776769492679 -0.0006263733565656
  0.2494844960481401 -0.0008612353090252  0.0005066549978041
  0.6261528752708524  0.6259172082578764  0.6249278492145186
  0.6262784882510054  0.3727228411985709  0.3750704454020976
  0.3764983110158819  0.3747811151078463  0.3753688178261176
  0.6271887296796416  0.3725426889335713  0.6254639808340658
  0.3740901439217670  0.3741226046621235  0.6262216781405284
  0.3741234277673962  0.6265553540402062  0.3758945904530219
  0.3736755206150598  0.6260977667839820  0.6248474274083353
  0.7499728357108714  0.7530080518124643  0.5011552178753474
  0.7498894588120588  0.4972830006497413  0.5007643337955171
  0.7499536915472795  0.4988625135454766  0.7510124044227116
  0.4988930093906555  0.7507402724107549  0.5005952910615428
  0.5003768316877213  0.7504592705866250  0.7491651536964404
  0.7508615552138002  0.7516934800609816  0.2484462873988378
  0.5003894148782522  0.5003782421789464  0.2518654363278017
  0.7500541660397119  0.2492310613774081  0.2516053228728876
  0.5013303116856930  0.2481331555982907  0.2504761980004734
  0.7505345647786654  0.2487613459227437  0.5006379661140766
  0.5022275923703178  0.2507974857451347  0.5004497479685013
  0.2499903236969780  0.5009092460178993  0.5005044468847103
  0.7506802689742559  0.2495553394857610  0.7492707786911785
  0.5023676301710059  0.2508243529152406  0.7501265049549510
  0.2489386318702818  0.2519179431066761  0.7491898118482165
  0.2489908406547211  0.5000768715790826  0.7488929526555504
  0.2482893992045608  0.7502142631019264  0.2517967895629080
  0.2497101226351055  0.7497878683763012  0.5005236414294941
  0.8755475823529489  0.8763577887095838  0.6245071061333023
  0.8756483497494072  0.6242090846781320  0.8757482046476134
  0.6252784552114603  0.6250498855804711  0.8760985134749129
  0.6244269047628453  0.8766553907436232  0.6246598327437003
  0.6250938830254217  0.8762039940777272  0.8755201331086244
  0.8753293654507391  0.8756952734220098  0.3749709384048898
  0.6264386716198606  0.8766937400294920  0.3760010837271301
  0.8752260259375073  0.3738760989641533  0.3761834814460444
  0.8752239524640765  0.3740878721166653  0.6255011326091666
  0.8749608425570029  0.3749511225469307  0.8740870217276119
  0.6267556634466499  0.3736680578129735  0.8749370759520484
  0.3743311021765132  0.3740549442223651  0.8749560259190672
  0.3742520002840670  0.8757250667569728  0.3757415388635164
  0.3753485577164409  0.8756319076051822  0.6242937812392637
  0.3756156412469931  0.8758833544017200  0.8752901846062396
  0.8752859241400375  0.8753528502170546  0.1252240554499598
  0.8760143627938731  0.6259899355774680  0.1243604634823335
  0.6260425577242552  0.6253927060540364  0.1235344107965739
  0.6259055053516602  0.8764478584893477  0.1245336159203836
  0.8751325330089238  0.3739019850859592  0.1236920985026881
  0.6261002788890974  0.1245965076543465  0.1248887820334769
  0.8743258127647512  0.1247811378227152  0.3750779903170827
  0.6258856049805102  0.1244101267652371  0.3751806691847233
  0.3760963647023678  0.1240054845753678  0.1240759148783960
  0.8743524008171937  0.1253537724829012  0.6248725345440670
  0.6261403280270038  0.1245354437374556  0.6251900777823007
  0.1232818259217362  0.1238237424353569  0.1241298756909894
  0.1217464594827658  0.3759819216353143  0.3763059910062118
  0.1234778701059280  0.1243444731046888  0.6262718646538278
  0.1233365027348789  0.3760640925390679  0.6263785257324390
  0.1234153224295576  0.6264482511504619  0.1243183425292009
  0.1240396468069058  0.6266962139526595  0.3758955257739313
  0.1240540929700332  0.6246807518345688  0.6245653825037433
  0.8747464046893225  0.1254511951600232  0.8748816022360666
  0.6250408102604962  0.1248462034561078  0.8748408224538314
  0.1238594397672509  0.3748820432711140  0.8740979675975505
  0.1238909248229772  0.6243111305708776  0.8752822479720102
  0.1244562353885670  0.8746685694809871  0.3750874331780281
  0.1243659417937683  0.8752128586330796  0.6240831081314387
  0.1237780953434127  0.8756104528467106  0.8754537168597264
  0.0000894006923170 -0.0010372206647939  0.0006982527491284
 -0.0005638210750325  0.0006856565136389  0.7483102828161269
 -0.0001467238713448  0.7490231582255226  0.0012132984231325
  0.7502054089731736  0.7494356620180654  0.0001883339586356
  0.7495461316795952  0.0010945090394553  0.7489988127306018
  0.7488609181054735 -0.0000254022117650  0.0001652671945283
 -0.0016313795508107 -0.0008033515519918  0.5005349059929463
  0.0017478134712256  0.7514332449874255  0.4995564713458401
  0.7503026652243866  0.0009287719435026  0.4999674062456420
  0.7515635645811165  0.5004707113237985 -0.0009289540273870
  0.5020786281189580  0.4998755955910346 -0.0030119951381419
  0.5024403468647016  0.7513868511723911 -0.0006425585787263
  0.5022109390339213 -0.0015592155359504  0.5004622189017653
  0.5018310236504849 -0.0010623731241640  0.7499192460231057
  0.5017716262462673  0.0001970619469713 -0.0002712342480022
 -0.0010161329585533 -0.0019673199154578  0.2504431798315072
  0.7498304804595153 -0.0002851480328399  0.2511350746051546
  0.5020942891897845 -0.0002242931090239  0.2501069406298728
 -0.0016582667608407  0.2499534685629494  0.2508434175413476
 -0.0018835081119173  0.2502446502133711  0.5013552598824376
 -0.0016950107659740  0.2508969390002486 -0.0016274911155176
  0.7501800390928502  0.2495945205746691 -0.0022235084375080
  0.5016745391920414  0.2484732209095790 -0.0012463811474033
  0.2474698034753987  0.5006144990981463 -0.0019273242408114
  0.2471469078967266  0.7512649668054038 -0.0013666122194430
  0.2489902423393025 -0.0011217829915671  0.2494516467065574
  0.2491009837740201 -0.0027747943849178  0.5008798710969978
  0.2494019057318175 -0.0024167569143521  0.7495695164868001
 
  0.00000000E+00  0.00000000E+00  0.00000000E+00
  0.00000000E+00  0.00000000E+00  0.00000000E+00
  0.00000000E+00  0.00000000E+00  0.00000000E+00
  0.00000000E+00  0.00000000E+00  0.00000000E+00
  0.00000000E+00  0.00000000E+00  0.00000000E+00
  0.00000000E+00  0.00000000E+00  0.00000000E+00
  0.00000000E+00  0.00000000E+00  0.00000000E+00
  0.00000000E+00  0.00000000E+00  0.00000000E+00
  0.00000000E+00  0.00000000E+00  0.00000000E+00
  0.00000000E+00  0.00000000E+00  0.00000000E+00
  0.00000000E+00  0.00000000E+00  0.00000000E+00
  0.00000000E+00  0.00000000E+00  0.00000000E+00
  0.00000000E+00  0.00000000E+00  0.00000000E+00
  0.00000000E+00  0.00000000E+00  0.00000000E+00
  0.00000000E+00  0.00000000E+00  0.00000000E+00
  0.00000000E+00  0.00000000E+00  0.00000000E+00
  0.00000000E+00  0.00000000E+00  0.00000000E+00
  0.00000000E+00  0.00000000E+00  0.00000000E+00
  0.00000000E+00  0.00000000E+00  0.00000000E+00
  0.00000000E+00  0.00000000E+00  0.00000000E+00
  0.00000000E+00  0.00000000E+00  0.00000000E+00
  0.00000000E+00  0.00000000E+00  0.00000000E+00
  0.00000000E+00  0.00000000E+00  0.00000000E+00
  0.00000000E+00  0.00000000E+00  0.00000000E+00
  0.00000000E+00  0.00000000E+00  0.00000000E+00
  0.00000000E+00  0.00000000E+00  0.00000000E+00
  0.00000000E+00  0.00000000E+00  0.00000000E+00
  0.00000000E+00  0.00000000E+00  0.00000000E+00
  0.00000000E+00  0.00000000E+00  0.00000000E+00
  0.00000000E+00  0.00000000E+00  0.00000000E+00
  0.00000000E+00  0.00000000E+00  0.00000000E+00
  0.00000000E+00  0.00000000E+00  0.00000000E+00
  0.00000000E+00  0.00000000E+00  0.00000000E+00
  0.00000000E+00  0.00000000E+00  0.00000000E+00
  0.00000000E+00  0.00000000E+00  0.00000000E+00
  0.00000000E+00  0.00000000E+00  0.00000000E+00
  0.00000000E+00  0.00000000E+00  0.00000000E+00
  0.00000000E+00  0.00000000E+00  0.00000000E+00
  0.00000000E+00  0.00000000E+00  0.00000000E+00
  0.00000000E+00  0.00000000E+00  0.00000000E+00
  0.00000000E+00  0.00000000E+00  0.00000000E+00
  0.00000000E+00  0.00000000E+00  0.00000000E+00
  0.00000000E+00  0.00000000E+00  0.00000000E+00
  0.00000000E+00  0.00000000E+00  0.00000000E+00
  0.00000000E+00  0.00000000E+00  0.00000000E+00
  0.00000000E+00  0.00000000E+00  0.00000000E+00
  0.00000000E+00  0.00000000E+00  0.00000000E+00
  0.00000000E+00  0.00000000E+00  0.00000000E+00
  0.00000000E+00  0.00000000E+00  0.00000000E+00
  0.00000000E+00  0.00000000E+00  0.00000000E+00
  0.00000000E+00  0.00000000E+00  0.00000000E+00
  0.00000000E+00  0.00000000E+00  0.00000000E+00
  0.00000000E+00  0.00000000E+00  0.00000000E+00
  0.00000000E+00  0.00000000E+00  0.00000000E+00
  0.00000000E+00  0.00000000E+00  0.00000000E+00
  0.00000000E+00  0.00000000E+00  0.00000000E+00
  0.00000000E+00  0.00000000E+00  0.00000000E+00
  0.00000000E+00  0.00000000E+00  0.00000000E+00
  0.00000000E+00  0.00000000E+00  0.00000000E+00
  0.00000000E+00  0.00000000E+00  0.00000000E+00
  0.00000000E+00  0.00000000E+00  0.00000000E+00
  0.00000000E+00  0.00000000E+00  0.00000000E+00
  0.00000000E+00  0.00000000E+00  0.00000000E+00
  0.00000000E+00  0.00000000E+00  0.00000000E+00
  0.00000000E+00  0.00000000E+00  0.00000000E+00
  0.00000000E+00  0.00000000E+00  0.00000000E+00
  0.00000000E+00  0.00000000E+00  0.00000000E+00
  0.00000000E+00  0.00000000E+00  0.00000000E+00
  0.00000000E+00  0.00000000E+00  0.00000000E+00
  0.00000000E+00  0.00000000E+00  0.00000000E+00
  0.00000000E+00  0.00000000E+00  0.00000000E+00
  0.00000000E+00  0.00000000E+00  0.00000000E+00
  0.00000000E+00  0.00000000E+00  0.00000000E+00
  0.00000000E+00  0.00000000E+00  0.00000000E+00
  0.00000000E+00  0.00000000E+00  0.00000000E+00
  0.00000000E+00  0.00000000E+00  0.00000000E+00
  0.00000000E+00  0.00000000E+00  0.00000000E+00
  0.00000000E+00  0.00000000E+00  0.00000000E+00
  0.00000000E+00  0.00000000E+00  0.00000000E+00
  0.00000000E+00  0.00000000E+00  0.00000000E+00
  0.00000000E+00  0.00000000E+00  0.00000000E+00
  0.00000000E+00  0.00000000E+00  0.00000000E+00
  0.00000000E+00  0.00000000E+00  0.00000000E+00
  0.00000000E+00  0.00000000E+00  0.00000000E+00
  0.00000000E+00  0.00000000E+00  0.00000000E+00
  0.00000000E+00  0.00000000E+00  0.00000000E+00
  0.00000000E+00  0.00000000E+00  0.00000000E+00
  0.00000000E+00  0.00000000E+00  0.00000000E+00
  0.00000000E+00  0.00000000E+00  0.00000000E+00
  0.00000000E+00  0.00000000E+00  0.00000000E+00
  0.00000000E+00  0.00000000E+00  0.00000000E+00
  0.00000000E+00  0.00000000E+00  0.00000000E+00
  0.00000000E+00  0.00000000E+00  0.00000000E+00
  0.00000000E+00  0.00000000E+00  0.00000000E+00
  0.00000000E+00  0.00000000E+00  0.00000000E+00
  0.00000000E+00  0.00000000E+00  0.00000000E+00
  0.00000000E+00  0.00000000E+00  0.00000000E+00
  0.00000000E+00  0.00000000E+00  0.00000000E+00
  0.00000000E+00  0.00000000E+00  0.00000000E+00
  0.00000000E+00  0.00000000E+00  0.00000000E+00
  0.00000000E+00  0.00000000E+00  0.00000000E+00
  0.00000000E+00  0.00000000E+00  0.00000000E+00
  0.00000000E+00  0.00000000E+00  0.00000000E+00
  0.00000000E+00  0.00000000E+00  0.00000000E+00
  0.00000000E+00  0.00000000E+00  0.00000000E+00
  0.00000000E+00  0.00000000E+00  0.00000000E+00
  0.00000000E+00  0.00000000E+00  0.00000000E+00
  0.00000000E+00  0.00000000E+00  0.00000000E+00
  0.00000000E+00  0.00000000E+00  0.00000000E+00
  0.00000000E+00  0.00000000E+00  0.00000000E+00
  0.00000000E+00  0.00000000E+00  0.00000000E+00
  0.00000000E+00  0.00000000E+00  0.00000000E+00
  0.00000000E+00  0.00000000E+00  0.00000000E+00
  0.00000000E+00  0.00000000E+00  0.00000000E+00
  0.00000000E+00  0.00000000E+00  0.00000000E+00
  0.00000000E+00  0.00000000E+00  0.00000000E+00
  0.00000000E+00  0.00000000E+00  0.00000000E+00
  0.00000000E+00  0.00000000E+00  0.00000000E+00
  0.00000000E+00  0.00000000E+00  0.00000000E+00
  0.00000000E+00  0.00000000E+00  0.00000000E+00
  0.00000000E+00  0.00000000E+00  0.00000000E+00
  0.00000000E+00  0.00000000E+00  0.00000000E+00
  0.00000000E+00  0.00000000E+00  0.00000000E+00
  0.00000000E+00  0.00000000E+00  0.00000000E+00
  0.00000000E+00  0.00000000E+00  0.00000000E+00
  0.00000000E+00  0.00000000E+00  0.00000000E+00
  0.00000000E+00  0.00000000E+00  0.00000000E+00
  0.00000000E+00  0.00000000E+00  0.00000000E+00
